 DBCSR| CPU Multiplication driver                                           XSMM (U)
 DBCSR| Multrec recursion limit                                              512 (U)
 DBCSR| Multiplication stack size                                           1000 (D)
 DBCSR| Maximum elements for images                                    UNLIMITED (U)
 DBCSR| Multiplicative factor virtual images                                   1 (U)
 DBCSR| Use multiplication densification                                       T (D)
 DBCSR| Multiplication size stacks                                             3 (U)
 DBCSR| Use memory pool for CPU allocation                                     F (U)
 DBCSR| OMP: Current number of threads                                        12
 DBCSR| OMP: Max number of threads                                            12
 DBCSR| Split modifier for TAS multiplication algorithm                  1.0E+00 (U)


  **** **** ******  **  PROGRAM STARTED AT               2026-10-06 16:34:40.152
 ***** ** ***  *** **   PROGRAM STARTED ON                              simnode7
 **    ****   ******    PROGRAM STARTED BY                               liuming
 ***** **    ** ** **   PROGRAM PROCESS ID                                189566
  **** **  *******  **  PROGRAM STARTED IN /mnt/ssd/home/liuming/PSSNa_add_EDD/C
                                           OF-opt/EDD/SO4/2-HBAB-TAPA-COF

 CP2K| version string:                                       CP2K version 2026.2
 CP2K| source code revision number:                                   67b5da876d
 CP2K| cp2kflags: omp libint fftw3 libxc libxs libxsmm spglib libdftd4 dftd4_v4_
 CP2K|            2 s_dftd3 mctc-lib tblite libvori libbqb libfci
 CP2K| is freely available from                            https://www.cp2k.org/
 CP2K| Program compiled at                                   2026-07-31 15:02:25
 CP2K| Program compiled on                                                PC9404
 CP2K| Program compiled for                                               x86_64
 CP2K| Data directory path             /mnt/ssd/home/xzhaoq/opt/cp2k-csnode/data
 CP2K| Input file name                                         HBAB-TAPA-COF.inp

 GLOBAL| Force Environment number                                              1
 GLOBAL| Basis set file name                                        BASIS_MOLOPT
 GLOBAL| Potential file name                                           POTENTIAL
 GLOBAL| MM Potential file name                                     MM_POTENTIAL
 GLOBAL| Coordinate file name                                      __STD_INPUT__
 GLOBAL| Method name                                                        CP2K
 GLOBAL| Project name                                   HBAB-TAPA-COF-2layer-SO4
 GLOBAL| Run type                                                         ENERGY
 GLOBAL| FFT library                                                       FFTW3
 GLOBAL| Diagonalization library                                       ScaLAPACK
 GLOBAL| Cholesky decomposition library                                ScaLAPACK
 GLOBAL| DGEMM library                                                      BLAS
 GLOBAL| Direct generalized diagonalization requested                          F
 GLOBAL| Orthonormality check for eigenvectors                          DISABLED
 GLOBAL| Matrix multiplication library                                 ScaLAPACK
 GLOBAL| All-to-all communication in single precision                          F
 GLOBAL| FFTs using library dependent lengths                                  F
 GLOBAL| Grid backend                                                       AUTO
 GLOBAL| Global print level                                                  LOW
 GLOBAL| MPI I/O enabled                                                       T
 GLOBAL| Total number of message passing processes                             1
 GLOBAL| Number of distributed systems (nodes)                                 1
 GLOBAL| Number of threads for this process                                   12
 GLOBAL| This output is from process                                           0
 GLOBAL| OpenMP stack size per thread (OMP_STACKSIZE)                        64M
 GLOBAL| CPU model name                     13th Gen Intel(R) Core(TM) i9-13900K
 GLOBAL| CPUID                                                              1002
 GLOBAL| Compiled for CPUID                                                 1001

 MEMORY| system memory details [Kb]
 MEMORY|                        rank 0           min           max       average
 MEMORY| MemTotal             65601780      65601780      65601780      65601780
 MEMORY| MemFree              21710668      21710668      21710668      21710668
 MEMORY| Buffers                195104        195104        195104        195104
 MEMORY| Cached               31184000      31184000      31184000      31184000
 MEMORY| Slab                   732076        732076        732076        732076
 MEMORY| SReclaimable           407048        407048        407048        407048
 MEMORY| MemLikelyFree        53496820      53496820      53496820      53496820


 GENERATE|  Preliminary Number of Bonds generated:                             0
 GENERATE|  Achieved consistency in connectivity generation.

 *******************************************************************************
 *******************************************************************************
 **                                                                           **
 **     #####                         ##              ##                      **
 **    ##   ##            ##          ##              ##                      **
 **   ##     ##                       ##            ######                    **
 **   ##     ##  ##   ##  ##   #####  ##  ##   ####   ##    #####    #####    **
 **   ##     ##  ##   ##  ##  ##      ## ##   ##      ##   ##   ##  ##   ##   **
 **   ##  ## ##  ##   ##  ##  ##      ####     ###    ##   ######   ######    **
 **    ##  ###   ##   ##  ##  ##      ## ##      ##   ##   ##       ##        **
 **     #######   #####   ##   #####  ##  ##  ####    ##    #####   ##        **
 **           ##                                                    ##        **
 **                                                                           **
 **                                                ... make the atoms dance   **
 **                                                                           **
 **            Copyright (C) by CP2K developers group (2000-2026)             **
 **                      J. Chem. Phys. 152, 194103 (2020)                    **
 **                                                                           **
 *******************************************************************************


 TOTAL NUMBERS AND MAXIMUM NUMBERS

  Total number of            - Atomic kinds:                                   4
                             - Atoms:                                        146
                             - Shell sets:                                   146
                             - Shells:                                       610
                             - Primitive Cartesian functions:                730
                             - Cartesian basis functions:                   1504
                             - Spherical basis functions:                   1418

  Maximum angular momentum of- Orbital basis functions:                        2
                             - Local part of the GTH pseudopotential:          2
                             - Non-local part of the GTH pseudopotential:      0


 SCF PARAMETERS         Density guess:                                    ATOMIC
                        --------------------------------------------------------
                        max_scf:                                             128
                        max_scf_history:                                       0
                        max_diis:                                              4
                        --------------------------------------------------------
                        eps_scf:                                        5.00E-06
                        eps_scf_history:                                0.00E+00
                        eps_diis:                                       1.00E-01
                        eps_eigval:                                     1.00E-05
                        --------------------------------------------------------
                        level_shift [a.u.]:                             0.000000
                        --------------------------------------------------------
                        Mixing method:                            BROYDEN_MIXING
                                                charge density mixing in g-space
                        --------------------------------------------------------
                        No outer SCF

 Extrapolation method: initial_guess

 Number of electrons:                                                        420
 Number of occupied orbitals:                                                210
 Number of molecular orbitals:                                               210

 Number of orbital functions:                                               1418
 Number of independent orbital functions:                                   1418


 SCF WAVEFUNCTION OPTIMIZATION

  Step     Update method      Time    Convergence         Total energy    Change
  ------------------------------------------------------------------------------
     1 NoMix/Diag. 0.40E+00    4.6     0.95659083      -593.4951329144 -5.93E+02
     2 Broy./Diag. 0.40E+00    6.1     0.52519368      -575.0222136165  1.85E+01
     3 Broy./Diag. 0.40E+00    6.4     0.10115354      -597.5342231673 -2.25E+01
     4 Broy./Diag. 0.40E+00    6.8     0.05664383      -602.8522281343 -5.32E+00
     5 Broy./Diag. 0.40E+00    6.9     0.02361276      -605.2945463126 -2.44E+00
     6 Broy./Diag. 0.40E+00    7.2     0.00737320      -604.5233333843  7.71E-01
     7 Broy./Diag. 0.40E+00    7.5     0.00680671      -604.2519266979  2.71E-01
     8 Broy./Diag. 0.40E+00    8.0     0.01226981      -604.3261844716 -7.43E-02
     9 Broy./Diag. 0.40E+00    8.4     0.00372647      -604.5338851816 -2.08E-01
    10 Broy./Diag. 0.40E+00    9.0     0.00118360      -604.6312892928 -9.74E-02
    11 Broy./Diag. 0.40E+00    8.9     0.00183026      -604.6427433363 -1.15E-02
    12 Broy./Diag. 0.40E+00    8.8     0.00068354      -604.6299738890  1.28E-02
    13 Broy./Diag. 0.40E+00    9.0     0.00046865      -604.6239718379  6.00E-03
    14 Broy./Diag. 0.40E+00    8.0     0.00045821      -604.6369355833 -1.30E-02
    15 Broy./Diag. 0.40E+00    8.7     0.00027068      -604.6532236662 -1.63E-02
    16 Broy./Diag. 0.40E+00    9.6     0.00023339      -604.6609134228 -7.69E-03
    17 Broy./Diag. 0.40E+00    9.6     0.00008858      -604.6627556996 -1.84E-03
    18 Broy./Diag. 0.40E+00    9.4     0.00006146      -604.6614284119  1.33E-03
    19 Broy./Diag. 0.40E+00    9.4     0.00004134      -604.6620015539 -5.73E-04
    20 Broy./Diag. 0.40E+00    9.3     0.00004809      -604.6638757331 -1.87E-03
    21 Broy./Diag. 0.40E+00    9.4     0.00005297      -604.6655748596 -1.70E-03
    22 Broy./Diag. 0.40E+00    8.9     0.00004197      -604.6663683234 -7.93E-04
    23 Broy./Diag. 0.40E+00    7.7     0.00002268      -604.6666021885 -2.34E-04
    24 Broy./Diag. 0.40E+00    7.7     0.00001633      -604.6668357698 -2.34E-04
    25 Broy./Diag. 0.40E+00    7.8     0.00000801      -604.6670611800 -2.25E-04
    26 Broy./Diag. 0.40E+00    7.8     0.00000594      -604.6672019233 -1.41E-04
    27 Broy./Diag. 0.40E+00    7.8     0.00000510      -604.6673086794 -1.07E-04
    28 Broy./Diag. 0.40E+00    7.7     0.00000170      -604.6673372213 -2.85E-05

  *** SCF run converged in    28 steps ***


  Electronic density on regular grids:       -420.0000000041       -0.0000000041
  Core density on regular grids:              421.9999999967       -0.0000000033
  Total charge density on r-space grids:        1.9999999926
  Total charge density g-space grids:           1.9999999926

  Overlap energy of the core charge distribution:               0.00003231907325
  Self energy of the core charge distribution:              -1449.04007032016170
  Core Hamiltonian energy:                                    448.32866540548127
  Hartree energy:                                             581.88514369128768
  Exchange-correlation energy:                               -185.54092586012490
  Dispersion energy:                                           -0.30018245688896

  Total energy:                                              -604.66733722133336

 The electron density is written in Cube    file format to the file:

 HBAB-TAPA-COF-2layer-SO4-ELECTRON_DENSITY-1_0.cube

 ENERGY| Total FORCE_EVAL ( QS ) energy [hartree]           -604.667337221333355

 -------------------------------------------------------------------------------
 -                                                                             -
 -                                DBCSR STATISTICS                             -
 -                                                                             -
 -------------------------------------------------------------------------------
 COUNTER                                    TOTAL       BLAS       SMM       ACC
 flops     5 x     5 x   210            538020000       0.0%    100.0%      0.0%     
 flops     5 x    13 x   210           1970623200       0.0%    100.0%      0.0%     
 flops    13 x     5 x   210           1972152000       0.0%    100.0%      0.0%     
 flops    13 x    13 x   210           7415138640       0.0%    100.0%      0.0%     
 flops inhomo. stacks                           0       0.0%      0.0%      0.0%
 flops total                        11.895934E+09       0.0%    100.0%      0.0%
 flops max/rank                     11.895934E+09       0.0%    100.0%      0.0%
 matmuls inhomo. stacks                         0       0.0%      0.0%      0.0%
 matmuls total                             300132       0.0%    100.0%      0.0%
 number of processed stacks                  1344       0.0%    100.0%      0.0%
 average stack size                                     0.0     223.3       0.0
 marketing flops                    23.646122E+09
 -------------------------------------------------------------------------------
 # multiplications                             28
 max memory usage/rank              14.655779E+09
 # max total images/rank                        1
 # max 3D layers                                1
 # MPI messages exchanged                       0
 -------------------------------------------------------------------------------

 -------------------------------------------------------------------------------
 -                                                                             -
 -                                GRID STATISTICS                              -
 -                                                                             -
 -------------------------------------------------------------------------------
 LP    KERNEL             BACKEND                              COUNT     PERCENT
 3     collocate general  CPU                                1298243      23.41%
 3     integrate general  CPU                                1253476      22.60%
 4     collocate general  CPU                                1003081      18.09%
 4     integrate general  CPU                                 968492      17.46%
 2     collocate general  CPU                                 520347       9.38%
 2     integrate general  CPU                                 502404       9.06%
 0     collocate general  CPU                                    146       0.00%
 -------------------------------------------------------------------------------

 -------------------------------------------------------------------------------
 -                                                                             -
 -                          OFFLOAD MEMPOOL STATISTICS                         -
 -                                                                             -
 -------------------------------------------------------------------------------
 Memory consumption                Number of allocations  Used [MiB]  Size [MiB]
 Host                                                  6         128         204
 -------------------------------------------------------------------------------

 MEMORY| Estimated peak process memory [MiB]                               10158

 -------------------------------------------------------------------------------
 -                                                                             -
 -                           R E F E R E N C E S                               -
 -                                                                             -
 -------------------------------------------------------------------------------
 
 CP2K version 2026.2, the CP2K developers group (2026).
 CP2K is freely available from https://www.cp2k.org/ .
 
 M. Iannuzzi, J. Wilhelm, F. Stein, A. Bussy, H. Elgabarty, D. Golze, A. Hehn, 
 M. Graml, S. Marek, B. Sertcan Gökmen, C. Schran, H. Forbert, R. Z. 
 Khaliullin, A. Kozhevnikov, M. Taillefumier, R. Meli, V. V. Rybkin, M. Brehm, 
 R. Schade, O. Schütt, J. V. Pototschnig, H. Mirhosseini, A. Knüpfer, D. Marx, 
 M. Krack, J. Hutter, T. D. Kühne.
 J. Phys. Chem. B 130, 1237-1310 (2026).
 The CP2K Program Package Made Simple.
 https://doi.org/10.1021/acs.jpcb.5c05851

 L. Wittmann, I. Gordiy, M. Friede, B. Helmich-Paris, S. Grimme, A. Hansen, M. 
 Bursch.
 Phys. Chem. Chem. Phys. 26, 21379-21394 (2024).
 Extension of the D3 and D4 London dispersion corrections to the full actinides 
 series.
 https://doi.org/10.1039/d4cp01514b

 T. D. Kühne, M. Iannuzzi, M. Del Ben, V. V. Rybkin, P. Seewald, F. Stein, T. 
 Laino, R. Z. Khaliullin, O. Schütt, F. Schiffmann, D. Golze, J. Wilhelm, S. 
 Chulkov, M. H. Bani-Hashemian, V. Weber, U. Borstnik, M. Taillefumier, A. S. 
 Jakobovits, A. Lazzaro, H. Pabst, T. Müller, R. Schade, M. Guidon, S. 
 Andermatt, N. Holmberg, G. K. Schenter, A. Hehn, A. Bussy, F. Belleflamme, G. 
 Tabacchi, A. Glöß, M. Lass, I. Bethune, C. J. Mundy, C. Plessl, M. Watkins, 
 J. VandeVondele, M. Krack, J. Hutter.
 J. Chem. Phys. 152, 194103 (2020).
 CP2K: An electronic structure and molecular dynamics software package - 
 Quickstep: Efficient and accurate electronic structure calculations.
 https://doi.org/10.1063/5.0007045

 L. Goerigk, A. Hansen, C. Bauer, S. Ehrlich, A. Najibi, S. Grimme.
 Phys. Chem. Chem. Phys. 19, 32184-32215 (2017).
 A look at the density functional theory zoo with the advanced GMTKN55 database 
 for general main group thermochemistry, kinetics and noncovalent interactions.
 https://doi.org/10.1039/C7CP04913G

 O. Schuett, P. Messmer, J. Hutter, J. VandeVondele.
 Electronic Structure Calculations on Graphics Processing Units, 173-190 (2016).
 GPU-Accelerated Sparse Matrix-Matrix Multiplication for Linear Scaling Density 
 Functional Theory.
 https://doi.org/10.1002/9781118670712.ch8

 A. Heinecke, G. Henry, M. Hutchinson, H. Pabst.
 Proceedings of Intl. Supercomputing Conference, 981-991 (2016).
 LIBXSMM: Accelerating Small Matrix Multiplications by Runtime Code Generation.
 https://doi.org/10.1109/SC.2016.83

 U. Borstnik, J. VandeVondele, V. Weber, J. Hutter.
 Parallel Comput. 40, 47-58 (2014).
 Sparse matrix multiplication: The distributed block-compressed sparse row 
 library.
 https://doi.org/10.1016/j.parco.2014.03.012

 S. Grimme, S. Ehrlich, L. Goerigk.
 J. Comput. Chem. 32, 1456 (2011).
 Effect of the damping function in dispersion corrected density functional 
 theory.
 https://doi.org/10.1002/jcc.21759

 S. Grimme, J. Antony, S. Ehrlich, H. Krieg.
 J. Chem. Phys. 132, 154104 (2010).
 A consistent and accurate ab initio parametrization of density functional 
 dispersion correction (DFT-D) for the 94 elements H-Pu.
 https://doi.org/10.1063/1.3382344

 J. VandeVondele, J. Hutter.
 J. Chem. Phys. 127, 114105 (2007).
 Gaussian basis sets for accurate calculations on molecular systems in gas and 
 condensed phases.
 https://doi.org/10.1063/1.2770708

 J. VandeVondele, M. Krack, F. Mohamed, M. Parrinello, T. Chassaing, J. Hutter.
 Comput. Phys. Commun. 167, 103-128 (2005).
 QUICKSTEP: Fast and accurate density functional calculations using a mixed 
 Gaussian and plane waves approach.
 https://doi.org/10.1016/j.cpc.2004.12.014

 M. Krack.
 Theor. Chem. Acc. 114, 145-152 (2005).
 Pseudopotentials for H to Kr optimized for gradient-corrected 
 exchange-correlation functionals.
 https://doi.org/10.1007/s00214-005-0655-y

 M. Frigo, S. G. Johnson.
 Proc. IEEE 93, 216-231 (2005).
 The design and implementation of FFTW3.
 https://doi.org/10.1109/JPROC.2004.840301

 G. J. Martyna, M. E. Tuckerman.
 J. Chem. Phys. 110, 2810-2821 (1999).
 A reciprocal space based method for treating long range interactions in ab 
 initio and force-field-based calculations in clusters.
 https://doi.org/10.1063/1.477923

 C. Hartwigsen, S. Goedecker, J. Hutter.
 Phys. Rev. B 58, 3641-3662 (1998).
 Relativistic separable dual-space Gaussian pseudopotentials from H to Rn.
 https://doi.org/10.1103/PhysRevB.58.3641

 G. Lippert, J. Hutter, M. Parrinello.
 Mol. Phys. 92, 477-487 (1997).
 A hybrid Gaussian and plane wave density functional scheme.
 https://doi.org/10.1080/002689797170220

 S. Goedecker, M. Teter, J. Hutter.
 Phys. Rev. B 54, 1703-1710 (1996).
 Separable dual-space Gaussian pseudopotentials.
 https://doi.org/10.1103/PhysRevB.54.1703

 J. P. Perdew, K. Burke, M. Ernzerhof.
 Phys. Rev. Lett. 77, 3865-3868 (1996).
 Generalized gradient approximation made simple.
 https://doi.org/10.1103/PhysRevLett.77.3865

 C. G. Broyden.
 Math. Comput. 19, 577-593 (1965).
 A class of methods for solving nonlinear simultaneous equations.
 https://doi.org/10.1090/S0025-5718-1965-0198670-6


 -------------------------------------------------------------------------------
 -                                                                             -
 -                                T I M I N G                                  -
 -                                                                             -
 -------------------------------------------------------------------------------
 SUBROUTINE                       CALLS  ASD         SELF TIME        TOTAL TIME
                                MAXIMUM       AVERAGE  MAXIMUM  AVERAGE  MAXIMUM
 CP2K                                 1  1.0    0.210    0.210  244.559  244.559
 qs_energies                          1  2.0    0.000    0.000  234.821  234.821
 scf_env_do_scf                       1  3.0    0.000    0.000  227.432  227.432
 scf_env_do_scf_inner_loop           28  4.0    0.002    0.002  227.432  227.432
 qs_ks_update_qs_env                 28  5.0    0.000    0.000   94.340   94.340
 rebuild_ks_matrix                   28  6.0    0.000    0.000   94.219   94.219
 qs_ks_build_kohn_sham_matrix        28  7.0    0.004    0.004   94.219   94.219
 fft_wrap_pw1pw2                    509 10.0    0.010    0.010   73.439   73.439
 gspace_mixing                       27  5.0    0.943    0.943   72.976   72.976
 fft_wrap_pw1pw2_180                338 11.3   12.954   12.954   71.230   71.230
 broyden_mixing                      27  6.0   66.810   66.810   66.810   66.810
 qs_vxc_create                       28  8.0    0.001    0.001   58.502   58.502
 xc_vxc_pw_create                    28  9.0    1.566    1.566   58.501   58.501
 xc_pw_derive                       168 11.0    0.002    0.002   40.364   40.364
 fft3d_s                            510 12.0   33.962   33.962   33.967   33.967
 qs_rho_update_rho_low               29  5.0    0.000    0.000   33.547   33.547
 calculate_rho_elec                  29  6.0    1.020    1.020   33.547   33.547
 xc_rho_set_and_dset_create          28 10.0    2.585    2.585   28.273   28.273
 xc_pw_divergence                    28 10.0    0.001    0.001   28.206   28.206
 qs_scf_new_mos                      28  5.0    0.000    0.000   27.675   27.675
 eigensolver                         28  6.0    0.003    0.003   25.305   25.305
 sum_up_and_integrate                28  8.0    0.000    0.000   22.968   22.968
 integrate_v_rspace                  28  9.0    0.024    0.024   22.707   22.707
 cp_fm_syevd                         28  7.0   18.628   18.628   18.709   18.709
 pw_scatter_s                       280 12.2   18.056   18.056   18.056   18.056
 grid_collocate_task_list            29  7.0   17.421   17.421   17.421   17.421
 density_rs2pw                       29  7.0    0.001    0.001   15.105   15.105
 grid_integrate_task_list            28 10.0   14.305   14.305   14.305   14.305
 qs_init_subsys                       1  2.0    0.000    0.000    9.333    9.333
 qs_env_setup                         1  3.0    0.000    0.000    9.295    9.295
 qs_env_rebuild_pw_env                2  3.5    0.000    0.000    9.295    9.295
 pw_env_rebuild                       1  5.0    0.000    0.000    9.295    9.295
 pw_grid_setup                        5  6.0    0.000    0.000    9.290    9.290
 pw_grid_setup_internal               5  7.0    0.175    0.175    9.290    9.290
 potential_pw2rs                     28 10.0    0.064    0.064    8.378    8.378
 pw_grid_sort                         5  8.0    6.251    6.251    8.060    8.060
 pw_poisson_solve                    28  8.0    0.001    0.001    6.651    6.651
 cp_fm_cholesky_restore              84  7.0    6.544    6.544    6.544    6.544
 xc_functional_eval                  28 11.0    0.000    0.000    6.491    6.491
 pbe_lda_eval                        28 12.0    6.491    6.491    6.491    6.491
 pw_gather_s                        229 11.8    5.227    5.227    5.227    5.227
 pw_derive                          252 11.3    5.085    5.085    5.085    5.085
 -------------------------------------------------------------------------------

 The number of warnings for this run is : 0
 
 -------------------------------------------------------------------------------
  **** **** ******  **  PROGRAM ENDED AT                 2026-10-06 16:38:44.871
 ***** ** ***  *** **   PROGRAM RAN ON                                  simnode7
 **    ****   ******    PROGRAM RAN BY                                   liuming
 ***** **    ** ** **   PROGRAM PROCESS ID                                189566
  **** **  *******  **  PROGRAM STOPPED IN /mnt/ssd/home/liuming/PSSNa_add_EDD/C
                                           OF-opt/EDD/SO4/2-HBAB-TAPA-COF
