 DBCSR| CPU Multiplication driver                                           XSMM (U)
 DBCSR| Multrec recursion limit                                              512 (U)
 DBCSR| Multiplication stack size                                           1000 (D)
 DBCSR| Maximum elements for images                                    UNLIMITED (U)
 DBCSR| Multiplicative factor virtual images                                   1 (U)
 DBCSR| Use multiplication densification                                       T (D)
 DBCSR| Multiplication size stacks                                             3 (U)
 DBCSR| Use memory pool for CPU allocation                                     F (U)
 DBCSR| OMP: Current number of threads                                        12
 DBCSR| OMP: Max number of threads                                            12
 DBCSR| Split modifier for TAS multiplication algorithm                  1.0E+00 (U)


  **** **** ******  **  PROGRAM STARTED AT               2026-10-06 16:36:36.123
 ***** ** ***  *** **   PROGRAM STARTED ON                              simnode7
 **    ****   ******    PROGRAM STARTED BY                               liuming
 ***** **    ** ** **   PROGRAM PROCESS ID                                189743
  **** **  *******  **  PROGRAM STARTED IN /mnt/ssd/home/liuming/PSSNa_add_EDD/C
                                           OF-opt/EDD/SO4/3-SO4

 CP2K| version string:                                       CP2K version 2026.2
 CP2K| source code revision number:                                   67b5da876d
 CP2K| cp2kflags: omp libint fftw3 libxc libxs libxsmm spglib libdftd4 dftd4_v4_
 CP2K|            2 s_dftd3 mctc-lib tblite libvori libbqb libfci
 CP2K| is freely available from                            https://www.cp2k.org/
 CP2K| Program compiled at                                   2026-07-31 15:02:25
 CP2K| Program compiled on                                                PC9404
 CP2K| Program compiled for                                               x86_64
 CP2K| Data directory path             /mnt/ssd/home/xzhaoq/opt/cp2k-csnode/data
 CP2K| Input file name                                                   SO4.inp

 GLOBAL| Force Environment number                                              1
 GLOBAL| Basis set file name                                        BASIS_MOLOPT
 GLOBAL| Potential file name                                           POTENTIAL
 GLOBAL| MM Potential file name                                     MM_POTENTIAL
 GLOBAL| Coordinate file name                                      __STD_INPUT__
 GLOBAL| Method name                                                        CP2K
 GLOBAL| Project name                                   HBAB-TAPA-COF-2layer-SO4
 GLOBAL| Run type                                                         ENERGY
 GLOBAL| FFT library                                                       FFTW3
 GLOBAL| Diagonalization library                                       ScaLAPACK
 GLOBAL| Cholesky decomposition library                                ScaLAPACK
 GLOBAL| DGEMM library                                                      BLAS
 GLOBAL| Direct generalized diagonalization requested                          F
 GLOBAL| Orthonormality check for eigenvectors                          DISABLED
 GLOBAL| Matrix multiplication library                                 ScaLAPACK
 GLOBAL| All-to-all communication in single precision                          F
 GLOBAL| FFTs using library dependent lengths                                  F
 GLOBAL| Grid backend                                                       AUTO
 GLOBAL| Global print level                                                  LOW
 GLOBAL| MPI I/O enabled                                                       T
 GLOBAL| Total number of message passing processes                             1
 GLOBAL| Number of distributed systems (nodes)                                 1
 GLOBAL| Number of threads for this process                                   12
 GLOBAL| This output is from process                                           0
 GLOBAL| OpenMP stack size per thread (OMP_STACKSIZE)                        64M
 GLOBAL| CPU model name                     13th Gen Intel(R) Core(TM) i9-13900K
 GLOBAL| CPUID                                                              1002
 GLOBAL| Compiled for CPUID                                                 1001

 MEMORY| system memory details [Kb]
 MEMORY|                        rank 0           min           max       average
 MEMORY| MemTotal             65601780      65601780      65601780      65601780
 MEMORY| MemFree              20574344      20574344      20574344      20574344
 MEMORY| Buffers                195240        195240        195240        195240
 MEMORY| Cached               31340280      31340280      31340280      31340280
 MEMORY| Slab                   732096        732096        732096        732096
 MEMORY| SReclaimable           407400        407400        407400        407400
 MEMORY| MemLikelyFree        52517264      52517264      52517264      52517264


 GENERATE|  Preliminary Number of Bonds generated:                             0
 GENERATE|  Achieved consistency in connectivity generation.

 *******************************************************************************
 *******************************************************************************
 **                                                                           **
 **     #####                         ##              ##                      **
 **    ##   ##            ##          ##              ##                      **
 **   ##     ##                       ##            ######                    **
 **   ##     ##  ##   ##  ##   #####  ##  ##   ####   ##    #####    #####    **
 **   ##     ##  ##   ##  ##  ##      ## ##   ##      ##   ##   ##  ##   ##   **
 **   ##  ## ##  ##   ##  ##  ##      ####     ###    ##   ######   ######    **
 **    ##  ###   ##   ##  ##  ##      ## ##      ##   ##   ##       ##        **
 **     #######   #####   ##   #####  ##  ##  ####    ##    #####   ##        **
 **           ##                                                    ##        **
 **                                                                           **
 **                                                ... make the atoms dance   **
 **                                                                           **
 **            Copyright (C) by CP2K developers group (2000-2026)             **
 **                      J. Chem. Phys. 152, 194103 (2020)                    **
 **                                                                           **
 *******************************************************************************


 TOTAL NUMBERS AND MAXIMUM NUMBERS

  Total number of            - Atomic kinds:                                   2
                             - Atoms:                                          5
                             - Shell sets:                                     5
                             - Shells:                                        25
                             - Primitive Cartesian functions:                 24
                             - Cartesian basis functions:                     70
                             - Spherical basis functions:                     65

  Maximum angular momentum of- Orbital basis functions:                        2
                             - Local part of the GTH pseudopotential:          2
                             - Non-local part of the GTH pseudopotential:      2


 SCF PARAMETERS         Density guess:                                    ATOMIC
                        --------------------------------------------------------
                        max_scf:                                             128
                        max_scf_history:                                       0
                        max_diis:                                              4
                        --------------------------------------------------------
                        eps_scf:                                        5.00E-06
                        eps_scf_history:                                0.00E+00
                        eps_diis:                                       1.00E-01
                        eps_eigval:                                     1.00E-05
                        --------------------------------------------------------
                        level_shift [a.u.]:                             0.000000
                        --------------------------------------------------------
                        Mixing method:                            BROYDEN_MIXING
                                                charge density mixing in g-space
                        --------------------------------------------------------
                        No outer SCF

 Extrapolation method: initial_guess

 Number of electrons:                                                         32
 Number of occupied orbitals:                                                 16
 Number of molecular orbitals:                                                16

 Number of orbital functions:                                                 65
 Number of independent orbital functions:                                     65


 SCF WAVEFUNCTION OPTIMIZATION

  Step     Update method      Time    Convergence         Total energy    Change
  ------------------------------------------------------------------------------
     1 NoMix/Diag. 0.40E+00    2.5     1.64735173       -75.0895590917 -7.51E+01
     2 Broy./Diag. 0.40E+00    3.0     0.38664360       -76.1921327468 -1.10E+00
     3 Broy./Diag. 0.40E+00    3.0     0.17054404       -75.4255627491  7.67E-01
     4 Broy./Diag. 0.40E+00    3.6     0.02087542       -74.4294769030  9.96E-01
     5 Broy./Diag. 0.40E+00    3.2     0.00448793       -74.1972560168  2.32E-01
     6 Broy./Diag. 0.40E+00    3.2     0.00366403       -74.2167763510 -1.95E-02
     7 Broy./Diag. 0.40E+00    3.8     0.00282949       -74.2261557118 -9.38E-03
     8 Broy./Diag. 0.40E+00    3.4     0.00062535       -74.2188776867  7.28E-03
     9 Broy./Diag. 0.40E+00    3.8     0.00140409       -74.2106015749  8.28E-03
    10 Broy./Diag. 0.40E+00    4.1     0.00029960       -74.2105185215  8.31E-05
    11 Broy./Diag. 0.40E+00    3.8     0.00007246       -74.2106017086 -8.32E-05
    12 Broy./Diag. 0.40E+00    4.3     0.00007608       -74.2121321933 -1.53E-03
    13 Broy./Diag. 0.40E+00    3.9     0.00002255       -74.2119523577  1.80E-04
    14 Broy./Diag. 0.40E+00    4.3     0.00001544       -74.2119297558  2.26E-05
    15 Broy./Diag. 0.40E+00    3.8     0.00001122       -74.2119551199 -2.54E-05
    16 Broy./Diag. 0.40E+00    4.0     0.00000801       -74.2122577930 -3.03E-04
    17 Broy./Diag. 0.40E+00    4.1     0.00002698       -74.2122259726  3.18E-05
    18 Broy./Diag. 0.40E+00    3.8     0.00000419       -74.2121721755  5.38E-05

  *** SCF run converged in    18 steps ***


  Electronic density on regular grids:        -32.0000000002       -0.0000000002
  Core density on regular grids:               29.9999999999       -0.0000000001
  Total charge density on r-space grids:       -2.0000000003
  Total charge density g-space grids:          -2.0000000003

  Overlap energy of the core charge distribution:               0.00000035474863
  Self energy of the core charge distribution:               -190.28438189661361
  Core Hamiltonian energy:                                     53.60471791026448
  Hartree energy:                                              79.52604046819548
  Exchange-correlation energy:                                -17.05484126282146
  Dispersion energy:                                           -0.00370774923771

  Total energy:                                               -74.21217217546418

 The electron density is written in Cube    file format to the file:

 HBAB-TAPA-COF-2layer-SO4-ELECTRON_DENSITY-1_0.cube

 ENERGY| Total FORCE_EVAL ( QS ) energy [hartree]            -74.212172175464175

 -------------------------------------------------------------------------------
 -                                                                             -
 -                                DBCSR STATISTICS                             -
 -                                                                             -
 -------------------------------------------------------------------------------
 COUNTER                                    TOTAL       BLAS       SMM       ACC
 flops    13 x    13 x    16              1460160       0.0%    100.0%      0.0%     
 flops inhomo. stacks                           0       0.0%      0.0%      0.0%
 flops total                         1.460160E+06       0.0%    100.0%      0.0%
 flops max/rank                      1.460160E+06       0.0%    100.0%      0.0%
 matmuls inhomo. stacks                         0       0.0%      0.0%      0.0%
 matmuls total                                270       0.0%    100.0%      0.0%
 number of processed stacks                    90       0.0%    100.0%      0.0%
 average stack size                                     0.0       3.0       0.0
 marketing flops                     2.433600E+06
 -------------------------------------------------------------------------------
 # multiplications                             18
 max memory usage/rank              14.447669E+09
 # max total images/rank                        1
 # max 3D layers                                1
 # MPI messages exchanged                       0
 -------------------------------------------------------------------------------

 -------------------------------------------------------------------------------
 -                                                                             -
 -                                GRID STATISTICS                              -
 -                                                                             -
 -------------------------------------------------------------------------------
 LP    KERNEL             BACKEND                              COUNT     PERCENT
 4     collocate general  CPU                                   6080      51.33%
 4     integrate general  CPU                                   5760      48.63%
 0     collocate general  CPU                                      5       0.04%
 -------------------------------------------------------------------------------

 -------------------------------------------------------------------------------
 -                                                                             -
 -                          OFFLOAD MEMPOOL STATISTICS                         -
 -                                                                             -
 -------------------------------------------------------------------------------
 Memory consumption                Number of allocations  Used [MiB]  Size [MiB]
 Host                                                  6         113         204
 -------------------------------------------------------------------------------

 MEMORY| Estimated peak process memory [MiB]                                9955

 -------------------------------------------------------------------------------
 -                                                                             -
 -                           R E F E R E N C E S                               -
 -                                                                             -
 -------------------------------------------------------------------------------
 
 CP2K version 2026.2, the CP2K developers group (2026).
 CP2K is freely available from https://www.cp2k.org/ .
 
 M. Iannuzzi, J. Wilhelm, F. Stein, A. Bussy, H. Elgabarty, D. Golze, A. Hehn, 
 M. Graml, S. Marek, B. Sertcan Gökmen, C. Schran, H. Forbert, R. Z. 
 Khaliullin, A. Kozhevnikov, M. Taillefumier, R. Meli, V. V. Rybkin, M. Brehm, 
 R. Schade, O. Schütt, J. V. Pototschnig, H. Mirhosseini, A. Knüpfer, D. Marx, 
 M. Krack, J. Hutter, T. D. Kühne.
 J. Phys. Chem. B 130, 1237-1310 (2026).
 The CP2K Program Package Made Simple.
 https://doi.org/10.1021/acs.jpcb.5c05851

 L. Wittmann, I. Gordiy, M. Friede, B. Helmich-Paris, S. Grimme, A. Hansen, M. 
 Bursch.
 Phys. Chem. Chem. Phys. 26, 21379-21394 (2024).
 Extension of the D3 and D4 London dispersion corrections to the full actinides 
 series.
 https://doi.org/10.1039/d4cp01514b

 T. D. Kühne, M. Iannuzzi, M. Del Ben, V. V. Rybkin, P. Seewald, F. Stein, T. 
 Laino, R. Z. Khaliullin, O. Schütt, F. Schiffmann, D. Golze, J. Wilhelm, S. 
 Chulkov, M. H. Bani-Hashemian, V. Weber, U. Borstnik, M. Taillefumier, A. S. 
 Jakobovits, A. Lazzaro, H. Pabst, T. Müller, R. Schade, M. Guidon, S. 
 Andermatt, N. Holmberg, G. K. Schenter, A. Hehn, A. Bussy, F. Belleflamme, G. 
 Tabacchi, A. Glöß, M. Lass, I. Bethune, C. J. Mundy, C. Plessl, M. Watkins, 
 J. VandeVondele, M. Krack, J. Hutter.
 J. Chem. Phys. 152, 194103 (2020).
 CP2K: An electronic structure and molecular dynamics software package - 
 Quickstep: Efficient and accurate electronic structure calculations.
 https://doi.org/10.1063/5.0007045

 L. Goerigk, A. Hansen, C. Bauer, S. Ehrlich, A. Najibi, S. Grimme.
 Phys. Chem. Chem. Phys. 19, 32184-32215 (2017).
 A look at the density functional theory zoo with the advanced GMTKN55 database 
 for general main group thermochemistry, kinetics and noncovalent interactions.
 https://doi.org/10.1039/C7CP04913G

 O. Schuett, P. Messmer, J. Hutter, J. VandeVondele.
 Electronic Structure Calculations on Graphics Processing Units, 173-190 (2016).
 GPU-Accelerated Sparse Matrix-Matrix Multiplication for Linear Scaling Density 
 Functional Theory.
 https://doi.org/10.1002/9781118670712.ch8

 A. Heinecke, G. Henry, M. Hutchinson, H. Pabst.
 Proceedings of Intl. Supercomputing Conference, 981-991 (2016).
 LIBXSMM: Accelerating Small Matrix Multiplications by Runtime Code Generation.
 https://doi.org/10.1109/SC.2016.83

 U. Borstnik, J. VandeVondele, V. Weber, J. Hutter.
 Parallel Comput. 40, 47-58 (2014).
 Sparse matrix multiplication: The distributed block-compressed sparse row 
 library.
 https://doi.org/10.1016/j.parco.2014.03.012

 S. Grimme, S. Ehrlich, L. Goerigk.
 J. Comput. Chem. 32, 1456 (2011).
 Effect of the damping function in dispersion corrected density functional 
 theory.
 https://doi.org/10.1002/jcc.21759

 S. Grimme, J. Antony, S. Ehrlich, H. Krieg.
 J. Chem. Phys. 132, 154104 (2010).
 A consistent and accurate ab initio parametrization of density functional 
 dispersion correction (DFT-D) for the 94 elements H-Pu.
 https://doi.org/10.1063/1.3382344

 J. VandeVondele, J. Hutter.
 J. Chem. Phys. 127, 114105 (2007).
 Gaussian basis sets for accurate calculations on molecular systems in gas and 
 condensed phases.
 https://doi.org/10.1063/1.2770708

 J. VandeVondele, M. Krack, F. Mohamed, M. Parrinello, T. Chassaing, J. Hutter.
 Comput. Phys. Commun. 167, 103-128 (2005).
 QUICKSTEP: Fast and accurate density functional calculations using a mixed 
 Gaussian and plane waves approach.
 https://doi.org/10.1016/j.cpc.2004.12.014

 M. Krack.
 Theor. Chem. Acc. 114, 145-152 (2005).
 Pseudopotentials for H to Kr optimized for gradient-corrected 
 exchange-correlation functionals.
 https://doi.org/10.1007/s00214-005-0655-y

 M. Frigo, S. G. Johnson.
 Proc. IEEE 93, 216-231 (2005).
 The design and implementation of FFTW3.
 https://doi.org/10.1109/JPROC.2004.840301

 G. J. Martyna, M. E. Tuckerman.
 J. Chem. Phys. 110, 2810-2821 (1999).
 A reciprocal space based method for treating long range interactions in ab 
 initio and force-field-based calculations in clusters.
 https://doi.org/10.1063/1.477923

 C. Hartwigsen, S. Goedecker, J. Hutter.
 Phys. Rev. B 58, 3641-3662 (1998).
 Relativistic separable dual-space Gaussian pseudopotentials from H to Rn.
 https://doi.org/10.1103/PhysRevB.58.3641

 G. Lippert, J. Hutter, M. Parrinello.
 Mol. Phys. 92, 477-487 (1997).
 A hybrid Gaussian and plane wave density functional scheme.
 https://doi.org/10.1080/002689797170220

 S. Goedecker, M. Teter, J. Hutter.
 Phys. Rev. B 54, 1703-1710 (1996).
 Separable dual-space Gaussian pseudopotentials.
 https://doi.org/10.1103/PhysRevB.54.1703

 J. P. Perdew, K. Burke, M. Ernzerhof.
 Phys. Rev. Lett. 77, 3865-3868 (1996).
 Generalized gradient approximation made simple.
 https://doi.org/10.1103/PhysRevLett.77.3865

 C. G. Broyden.
 Math. Comput. 19, 577-593 (1965).
 A class of methods for solving nonlinear simultaneous equations.
 https://doi.org/10.1090/S0025-5718-1965-0198670-6


 -------------------------------------------------------------------------------
 -                                                                             -
 -                                T I M I N G                                  -
 -                                                                             -
 -------------------------------------------------------------------------------
 SUBROUTINE                       CALLS  ASD         SELF TIME        TOTAL TIME
                                MAXIMUM       AVERAGE  MAXIMUM  AVERAGE  MAXIMUM
 CP2K                                 1  1.0    0.145    0.145   76.879   76.879
 qs_energies                          1  2.0    0.000    0.000   70.836   70.836
 scf_env_do_scf                       1  3.0    0.000    0.000   66.203   66.203
 scf_env_do_scf_inner_loop           18  4.0    0.001    0.001   66.203   66.203
 qs_ks_update_qs_env                 18  5.0    0.000    0.000   40.030   40.030
 rebuild_ks_matrix                   18  6.0    0.000    0.000   40.030   40.030
 qs_ks_build_kohn_sham_matrix        18  7.0    0.002    0.002   40.030   40.030
 fft_wrap_pw1pw2                    329 10.0    0.005    0.005   37.555   37.555
 fft_wrap_pw1pw2_180                218 11.3    5.567    5.567   36.437   36.437
 qs_vxc_create                       18  8.0    0.000    0.000   29.359   29.359
 xc_vxc_pw_create                    18  9.0    0.658    0.658   29.359   29.359
 xc_pw_derive                       108 11.0    0.001    0.001   21.039   21.039
 fft3d_s                            330 12.0   18.903   18.903   18.907   18.907
 gspace_mixing                       17  5.0    0.304    0.304   16.773   16.773
 xc_pw_divergence                    18 10.0    0.001    0.001   14.857   14.857
 broyden_mixing                      17  6.0   13.941   13.941   13.941   13.941
 xc_rho_set_and_dset_create          18 10.0    1.279    1.279   13.574   13.574
 qs_rho_update_rho_low               19  5.0    0.000    0.000    9.894    9.894
 calculate_rho_elec                  19  6.0    0.345    0.345    9.894    9.894
 pw_scatter_s                       180 12.2    8.382    8.382    8.382    8.382
 density_rs2pw                       19  7.0    0.001    0.001    7.648    7.648
 qs_init_subsys                       1  2.0    0.000    0.000    5.758    5.758
 qs_env_setup                         1  3.0    0.000    0.000    5.735    5.735
 qs_env_rebuild_pw_env                2  3.5    0.000    0.000    5.735    5.735
 pw_env_rebuild                       1  5.0    0.000    0.000    5.735    5.735
 pw_grid_setup                        5  6.0    0.000    0.000    5.735    5.735
 pw_grid_setup_internal               5  7.0    0.096    0.096    5.735    5.735
 pw_grid_sort                         5  8.0    3.626    3.626    4.979    4.979
 sum_up_and_integrate                18  8.0    0.000    0.000    4.292    4.292
 integrate_v_rspace                  18  9.0    0.001    0.001    4.126    4.126
 potential_pw2rs                     18 10.0    0.031    0.031    4.081    4.081
 pw_derive                          162 11.3    3.209    3.209    3.209    3.209
 pw_poisson_solve                    18  8.0    0.000    0.000    3.206    3.206
 pw_gather_s                        149 11.8    2.975    2.975    2.975    2.975
 scf_post_calculation_gpw             1  3.0    0.000    0.000    2.955    2.955
 write_available_results              1  4.0    0.000    0.000    2.955    2.955
 write_mo_free_results                1  5.0    0.605    0.605    2.955    2.955
 pw_to_cube                           1  6.0    2.346    2.346    2.350    2.350
 xc_functional_eval                  18 11.0    0.000    0.000    2.266    2.266
 pbe_lda_eval                        18 12.0    2.266    2.266    2.266    2.266
 grid_collocate_task_list            19  7.0    1.901    1.901    1.901    1.901
 pw_copy                            270 10.5    1.708    1.708    1.708    1.708
 pw_poisson_set                      19  8.8    0.001    0.001    1.557    1.557
 -------------------------------------------------------------------------------

 The number of warnings for this run is : 0
 
 -------------------------------------------------------------------------------
  **** **** ******  **  PROGRAM ENDED AT                 2026-10-06 16:37:53.095
 ***** ** ***  *** **   PROGRAM RAN ON                                  simnode7
 **    ****   ******    PROGRAM RAN BY                                   liuming
 ***** **    ** ** **   PROGRAM PROCESS ID                                189743
  **** **  *******  **  PROGRAM STOPPED IN /mnt/ssd/home/liuming/PSSNa_add_EDD/C
                                           OF-opt/EDD/SO4/3-SO4
