SIRIUS 7.7.0, git hash: https://api.github.com/repos/electronic-structure/SIRIUS/git/ref/tags/v7.7.0
 DBCSR| CPU Multiplication driver                                           BLAS (U)
 DBCSR| Multrec recursion limit                                              512 (U)
 DBCSR| Multiplication stack size                                           1000 (D)
 DBCSR| Maximum elements for images                                    UNLIMITED (U)
 DBCSR| Multiplicative factor virtual images                                   1 (U)
 DBCSR| Use multiplication densification                                       T (D)
 DBCSR| Multiplication size stacks                                             3 (U)
 DBCSR| Use memory pool for CPU allocation                                     F (U)
 DBCSR| Number of 3D layers                                               SINGLE (U)
 DBCSR| Use MPI memory allocation                                              F (U)
 DBCSR| Use RMA algorithm                                                      F (U)
 DBCSR| Use Communication thread                                               T (U)
 DBCSR| Communication thread load                                             87 (D)
 DBCSR| MPI: My process id                                                     0
 DBCSR| MPI: Number of processes                                              16
 DBCSR| OMP: Current number of threads                                         1
 DBCSR| OMP: Max number of threads                                             1
 DBCSR| Split modifier for TAS multiplication algorithm                  1.0E+00 (U)


  **** **** ******  **  PROGRAM STARTED AT               2026-06-04 14:23:17.517
 ***** ** ***  *** **   PROGRAM STARTED ON                              simnode3
 **    ****   ******    PROGRAM STARTED BY                               liuming
 ***** **    ** ** **   PROGRAM PROCESS ID                                241776
  **** **  *******  **  PROGRAM STARTED IN /mnt/ssd/home/liuming/cp2k/HBAB-TAPA-
                                           COF/HBAB-TAPA-COF-Cs

 CP2K| version string:                                       CP2K version 2025.2
 CP2K| source code revision number:                                  git:3158929
 CP2K| cp2kflags: omp libint fftw3 libxc libgrpp elpa parallel scalapack mpi_f08
 CP2K|             cosma xsmm spglib libdftd4 mctc-lib tblite sirius libvori lib
 CP2K|            bbqb libvdwxc hdf5
 CP2K| is freely available from                            https://www.cp2k.org/
 CP2K| Program compiled at                       Fri Nov 21 04:12:42 PM CST 2025
 CP2K| Program compiled on                                              simnode3
 CP2K| Program compiled for                                                local
 CP2K| Data directory path                     /nfs/share/repos/cp2k-2025.2/data
 CP2K| Input file name                                      HBAB-TAPA-COF-Cs.inp

 GLOBAL| Force Environment number                                              1
 GLOBAL| Basis set file name                                        BASIS_MOLOPT
 GLOBAL| Potential file name                                           POTENTIAL
 GLOBAL| MM Potential file name                                     MM_POTENTIAL
 GLOBAL| Coordinate file name                                      __STD_INPUT__
 GLOBAL| Method name                                                        CP2K
 GLOBAL| Project name                                           HBAB-TAPA-COF-Cs
 GLOBAL| Run type                                                        GEO_OPT
 GLOBAL| FFT library                                                       FFTW3
 GLOBAL| Diagonalization library                                            ELPA
 GLOBAL| Cholesky decomposition library                                ScaLAPACK
 GLOBAL| DGEMM library                                                      BLAS
 GLOBAL| Minimum number of eigenvectors for ELPA usage                        16
 GLOBAL| Orthonormality check for eigenvectors                          DISABLED
 GLOBAL| Matrix multiplication library                                     COSMA
 GLOBAL| All-to-all communication in single precision                          F
 GLOBAL| FFTs using library dependent lengths                                  F
 GLOBAL| Grid backend                                                       AUTO
 GLOBAL| Global print level                                                  LOW
 GLOBAL| MPI I/O enabled                                                       T
 GLOBAL| Total number of message passing processes                            16
 GLOBAL| Number of threads for this process                                    1
 GLOBAL| This output is from process                                           0
 GLOBAL| OpenMP stack size per thread (OMP_STACKSIZE)                    default
 GLOBAL| CPU model name                      AMD Ryzen 9 9950X 16-Core Processor
 GLOBAL| CPUID                                                              1003

 MEMORY| system memory details [Kb]
 MEMORY|                        rank 0           min           max       average
 MEMORY| MemTotal             96436364      96436364      96436364      96436364
 MEMORY| MemFree              72609900      72609900      72609900      72609900
 MEMORY| Buffers                144668        144668        144668        144668
 MEMORY| Cached               19563216      19563216      19563216      19563216
 MEMORY| Slab                   464972        464972        464972        464972
 MEMORY| SReclaimable           147668        147668        147668        147668
 MEMORY| MemLikelyFree        92465452      92465452      92465452      92465452


 GENERATE|  Preliminary Number of Bonds generated:                             0
 GENERATE|  Achieved consistency in connectivity generation.

 *******************************************************************************
 *******************************************************************************
 **                                                                           **
 **     #####                         ##              ##                      **
 **    ##   ##            ##          ##              ##                      **
 **   ##     ##                       ##            ######                    **
 **   ##     ##  ##   ##  ##   #####  ##  ##   ####   ##    #####    #####    **
 **   ##     ##  ##   ##  ##  ##      ## ##   ##      ##   ##   ##  ##   ##   **
 **   ##  ## ##  ##   ##  ##  ##      ####     ###    ##   ######   ######    **
 **    ##  ###   ##   ##  ##  ##      ## ##      ##   ##   ##       ##        **
 **     #######   #####   ##   #####  ##  ##  ####    ##    #####   ##        **
 **           ##                                                    ##        **
 **                                                                           **
 **                                                ... make the atoms dance   **
 **                                                                           **
 **            Copyright (C) by CP2K developers group (2000-2025)             **
 **                      J. Chem. Phys. 152, 194103 (2020)                    **
 **                                                                           **
 *******************************************************************************


 TOTAL NUMBERS AND MAXIMUM NUMBERS

  Total number of            - Atomic kinds:                                   5
                             - Atoms:                                         74
                             - Shell sets:                                    74
                             - Shells:                                       311
                             - Primitive Cartesian functions:                371
                             - Cartesian basis functions:                    767
                             - Spherical basis functions:                    723

  Maximum angular momentum of- Orbital basis functions:                        2
                             - Local part of the GTH pseudopotential:          2
                             - Non-local part of the GTH pseudopotential:      3


 SCF PARAMETERS         Density guess:                                    ATOMIC
                        --------------------------------------------------------
                        max_scf:                                             128
                        max_scf_history:                                       0
                        max_diis:                                              4
                        --------------------------------------------------------
                        eps_scf:                                        1.00E-06
                        eps_scf_history:                                0.00E+00
                        eps_diis:                                       1.00E-01
                        eps_eigval:                                     1.00E-05
                        --------------------------------------------------------
                        level_shift [a.u.]:                             0.000000
                        added MOs                                        37    0
                        --------------------------------------------------------
                        Mixing method:                            BROYDEN_MIXING
                                                charge density mixing in g-space
                        --------------------------------------------------------
                        Smear method:                                FERMI_DIRAC
                        Electronic temperature [K]:                        300.0
                        Electronic temperature [a.u.]:                  9.50E-04
                        Accuracy threshold:                             1.00E-10
                        --------------------------------------------------------
                        No outer SCF

 BFGS| Use rational function optimization for step estimation:                NO
 BFGS| Use model Hessian for initial guess:                                  YES
 BFGS| Restart Hessian:                                                       NO
 BFGS| Trust radius:                                                       0.378

 *** WARNING in fm/cp_fm_elpa.F:521 :: Setting real_kernel for ELPA failed ***


 *******************************************************************************
 ***                     STARTING GEOMETRY OPTIMIZATION                      ***
 ***                                   BFGS                                  ***
 *******************************************************************************

 Number of electrons:                                                        218
 Number of occupied orbitals:                                                109
 Number of molecular orbitals:                                               146

 Number of orbital functions:                                                723
 Number of independent orbital functions:                                    723

 Extrapolation method: initial_guess


 SCF WAVEFUNCTION OPTIMIZATION

  Step     Update method      Time    Convergence         Total energy    Change
  ------------------------------------------------------------------------------

 *** WARNING in fm/cp_fm_elpa.F:521 :: Setting real_kernel for ELPA failed ***

     1 NoMix/Diag. 0.40E+00    1.1     0.94207384      -316.2465075181 -3.16E+02

 *** WARNING in fm/cp_fm_elpa.F:521 :: Setting real_kernel for ELPA failed ***

     2 Broy./Diag. 0.40E+00    1.5     0.57561078      -306.0278574373  1.02E+01

 *** WARNING in fm/cp_fm_elpa.F:521 :: Setting real_kernel for ELPA failed ***

     3 Broy./Diag. 0.40E+00    1.6     0.11314105      -318.1899227437 -1.22E+01

 *** WARNING in fm/cp_fm_elpa.F:521 :: Setting real_kernel for ELPA failed ***

     4 Broy./Diag. 0.40E+00    1.6     0.06279247      -321.1041536978 -2.91E+00

 *** WARNING in fm/cp_fm_elpa.F:521 :: Setting real_kernel for ELPA failed ***

     5 Broy./Diag. 0.40E+00    1.6     0.02005417      -322.5511286529 -1.45E+00

 *** WARNING in fm/cp_fm_elpa.F:521 :: Setting real_kernel for ELPA failed ***

     6 Broy./Diag. 0.40E+00    1.6     0.00883688      -322.2201824223  3.31E-01

 *** WARNING in fm/cp_fm_elpa.F:521 :: Setting real_kernel for ELPA failed ***

     7 Broy./Diag. 0.40E+00    1.6     0.00480668      -322.0948707692  1.25E-01

 *** WARNING in fm/cp_fm_elpa.F:521 :: Setting real_kernel for ELPA failed ***

     8 Broy./Diag. 0.40E+00    1.6     0.00713710      -322.1562671649 -6.14E-02

 *** WARNING in fm/cp_fm_elpa.F:521 :: Setting real_kernel for ELPA failed ***

     9 Broy./Diag. 0.40E+00    1.7     0.00262665      -322.2928866311 -1.37E-01

 *** WARNING in fm/cp_fm_elpa.F:521 :: Setting real_kernel for ELPA failed ***

    10 Broy./Diag. 0.40E+00    1.8     0.00142811      -322.3455091986 -5.26E-02

 *** WARNING in fm/cp_fm_elpa.F:521 :: Setting real_kernel for ELPA failed ***

    11 Broy./Diag. 0.40E+00    1.8     0.00085107      -322.3406413451  4.87E-03

 *** WARNING in fm/cp_fm_elpa.F:521 :: Setting real_kernel for ELPA failed ***

    12 Broy./Diag. 0.40E+00    1.7     0.00075111      -322.3227864909  1.79E-02

 *** WARNING in fm/cp_fm_elpa.F:521 :: Setting real_kernel for ELPA failed ***

    13 Broy./Diag. 0.40E+00    1.8     0.00036045      -322.3148512972  7.94E-03

 *** WARNING in fm/cp_fm_elpa.F:521 :: Setting real_kernel for ELPA failed ***

    14 Broy./Diag. 0.40E+00    1.7     0.00016683      -322.3165556119 -1.70E-03

 *** WARNING in fm/cp_fm_elpa.F:521 :: Setting real_kernel for ELPA failed ***

    15 Broy./Diag. 0.40E+00    1.8     0.00016719      -322.3191538039 -2.60E-03

 *** WARNING in fm/cp_fm_elpa.F:521 :: Setting real_kernel for ELPA failed ***

    16 Broy./Diag. 0.40E+00    1.8     0.00006978      -322.3190632498  9.06E-05

 *** WARNING in fm/cp_fm_elpa.F:521 :: Setting real_kernel for ELPA failed ***

    17 Broy./Diag. 0.40E+00    1.7     0.00009673      -322.3174426630  1.62E-03

 *** WARNING in fm/cp_fm_elpa.F:521 :: Setting real_kernel for ELPA failed ***

    18 Broy./Diag. 0.40E+00    1.8     0.00009838      -322.3151918882  2.25E-03

 *** WARNING in fm/cp_fm_elpa.F:521 :: Setting real_kernel for ELPA failed ***

    19 Broy./Diag. 0.40E+00    1.8     0.00007481      -322.3141100320  1.08E-03

 *** WARNING in fm/cp_fm_elpa.F:521 :: Setting real_kernel for ELPA failed ***

    20 Broy./Diag. 0.40E+00    1.8     0.00004134      -322.3139456389  1.64E-04

 *** WARNING in fm/cp_fm_elpa.F:521 :: Setting real_kernel for ELPA failed ***

    21 Broy./Diag. 0.40E+00    1.8     0.00001502      -322.3140611882 -1.16E-04

 *** WARNING in fm/cp_fm_elpa.F:521 :: Setting real_kernel for ELPA failed ***

    22 Broy./Diag. 0.40E+00    1.8     0.00000692      -322.3141759699 -1.15E-04

 *** WARNING in fm/cp_fm_elpa.F:521 :: Setting real_kernel for ELPA failed ***

    23 Broy./Diag. 0.40E+00    1.8     0.00000568      -322.3142764669 -1.00E-04

 *** WARNING in fm/cp_fm_elpa.F:521 :: Setting real_kernel for ELPA failed ***

    24 Broy./Diag. 0.40E+00    1.8     0.00000424      -322.3143392698 -6.28E-05

 *** WARNING in fm/cp_fm_elpa.F:521 :: Setting real_kernel for ELPA failed ***

    25 Broy./Diag. 0.40E+00    1.8     0.00000311      -322.3143560829 -1.68E-05

 *** WARNING in fm/cp_fm_elpa.F:521 :: Setting real_kernel for ELPA failed ***

    26 Broy./Diag. 0.40E+00    1.8     0.00000256      -322.3143987245 -4.26E-05

 *** WARNING in fm/cp_fm_elpa.F:521 :: Setting real_kernel for ELPA failed ***

    27 Broy./Diag. 0.40E+00    1.8     0.00000152      -322.3144549619 -5.62E-05

 *** WARNING in fm/cp_fm_elpa.F:521 :: Setting real_kernel for ELPA failed ***

    28 Broy./Diag. 0.40E+00    1.8     0.00000156      -322.3144858747 -3.09E-05

 *** WARNING in fm/cp_fm_elpa.F:521 :: Setting real_kernel for ELPA failed ***

    29 Broy./Diag. 0.40E+00    1.8     0.00000068      -322.3144981342 -1.23E-05

  *** SCF run converged in    29 steps ***


  Electronic density on regular grids:       -217.9999999988        0.0000000012
  Core density on regular grids:              219.9999999998       -0.0000000002
  Total charge density on r-space grids:        2.0000000010
  Total charge density g-space grids:           2.0000000010

  Overlap energy of the core charge distribution:               0.00001415875835
  Self energy of the core charge distribution:               -766.83425392616255
  Core Hamiltonian energy:                                    231.49273544022105
  Hartree energy:                                             308.70670489192264
  Exchange-correlation energy:                                -95.55944508228784
  Dispersion energy:                                           -0.12025361669782
  Electronic entropic energy:                                  -0.00000000000005
  Fermi energy:                                                -0.27950339882034

  Total energy:                                              -322.31449813424615

 ENERGY| Total FORCE_EVAL ( QS ) energy [hartree]           -322.314489382143051

 OPT| **************************************************************************
 OPT| Step number                                                              0
 OPT| Optimization method                                                   BFGS
 OPT| Total energy [hartree]                                     -322.3144893821
 OPT| Used time [s]                                                       51.219
 OPT| **************************************************************************
 OPT| Estimated peak process memory [MiB]                                    710

 --------------------------
 OPTIMIZATION STEP:      1
 --------------------------

 *** WARNING in fm/cp_fm_elpa.F:521 :: Setting real_kernel for ELPA failed ***


  Step is scaled; Scaling factor =  0.73347

 Number of electrons:                                                        218
 Number of occupied orbitals:                                                109
 Number of molecular orbitals:                                               146

 Number of orbital functions:                                                723
 Number of independent orbital functions:                                    723

 *** WARNING in fm/cp_fm_elpa.F:521 :: Setting real_kernel for ELPA failed ***


 Extrapolation method: ASPC


 SCF WAVEFUNCTION OPTIMIZATION

  Step     Update method      Time    Convergence         Total energy    Change
  ------------------------------------------------------------------------------

 *** WARNING in fm/cp_fm_elpa.F:521 :: Setting real_kernel for ELPA failed ***

     1 Broy./Diag. 0.40E+00    1.1     0.04113616      -322.3178742497 -3.22E+02

 *** WARNING in fm/cp_fm_elpa.F:521 :: Setting real_kernel for ELPA failed ***

     2 Broy./Diag. 0.40E+00    1.5     0.00910728      -322.2276550917  9.02E-02

 *** WARNING in fm/cp_fm_elpa.F:521 :: Setting real_kernel for ELPA failed ***

     3 Broy./Diag. 0.40E+00    1.6     0.00389169      -322.3073066243 -7.97E-02

 *** WARNING in fm/cp_fm_elpa.F:521 :: Setting real_kernel for ELPA failed ***

     4 Broy./Diag. 0.40E+00    1.6     0.00146531      -322.3382651064 -3.10E-02

 *** WARNING in fm/cp_fm_elpa.F:521 :: Setting real_kernel for ELPA failed ***

     5 Broy./Diag. 0.40E+00    1.6     0.00063123      -322.3375739263  6.91E-04

 *** WARNING in fm/cp_fm_elpa.F:521 :: Setting real_kernel for ELPA failed ***

     6 Broy./Diag. 0.40E+00    1.6     0.00037600      -322.3324861393  5.09E-03

 *** WARNING in fm/cp_fm_elpa.F:521 :: Setting real_kernel for ELPA failed ***

     7 Broy./Diag. 0.40E+00    1.6     0.00026364      -322.3296737669  2.81E-03

 *** WARNING in fm/cp_fm_elpa.F:521 :: Setting real_kernel for ELPA failed ***

     8 Broy./Diag. 0.40E+00    1.7     0.00017531      -322.3299107608 -2.37E-04

 *** WARNING in fm/cp_fm_elpa.F:521 :: Setting real_kernel for ELPA failed ***

     9 Broy./Diag. 0.40E+00    1.7     0.00011063      -322.3300976976 -1.87E-04

 *** WARNING in fm/cp_fm_elpa.F:521 :: Setting real_kernel for ELPA failed ***

    10 Broy./Diag. 0.40E+00    1.7     0.00009867      -322.3302581603 -1.60E-04

 *** WARNING in fm/cp_fm_elpa.F:521 :: Setting real_kernel for ELPA failed ***

    11 Broy./Diag. 0.40E+00    1.8     0.00005791      -322.3302545612  3.60E-06

 *** WARNING in fm/cp_fm_elpa.F:521 :: Setting real_kernel for ELPA failed ***

    12 Broy./Diag. 0.40E+00    1.8     0.00002793      -322.3303888111 -1.34E-04

 *** WARNING in fm/cp_fm_elpa.F:521 :: Setting real_kernel for ELPA failed ***

    13 Broy./Diag. 0.40E+00    1.8     0.00003571      -322.3302803885  1.08E-04

 *** WARNING in fm/cp_fm_elpa.F:521 :: Setting real_kernel for ELPA failed ***

    14 Broy./Diag. 0.40E+00    1.8     0.00002179      -322.3302646223  1.58E-05

 *** WARNING in fm/cp_fm_elpa.F:521 :: Setting real_kernel for ELPA failed ***

    15 Broy./Diag. 0.40E+00    1.8     0.00001356      -322.3302665616 -1.94E-06

 *** WARNING in fm/cp_fm_elpa.F:521 :: Setting real_kernel for ELPA failed ***

    16 Broy./Diag. 0.40E+00    1.8     0.00000668      -322.3302658956  6.66E-07

 *** WARNING in fm/cp_fm_elpa.F:521 :: Setting real_kernel for ELPA failed ***

    17 Broy./Diag. 0.40E+00    1.8     0.00000398      -322.3302367546  2.91E-05

 *** WARNING in fm/cp_fm_elpa.F:521 :: Setting real_kernel for ELPA failed ***

    18 Broy./Diag. 0.40E+00    1.8     0.00000217      -322.3302068414  2.99E-05

 *** WARNING in fm/cp_fm_elpa.F:521 :: Setting real_kernel for ELPA failed ***

    19 Broy./Diag. 0.40E+00    1.8     0.00000096      -322.3301835621  2.33E-05

  *** SCF run converged in    19 steps ***


  Electronic density on regular grids:       -218.0000000005       -0.0000000005
  Core density on regular grids:              219.9999999998       -0.0000000002
  Total charge density on r-space grids:        1.9999999993
  Total charge density g-space grids:           1.9999999993

  Overlap energy of the core charge distribution:               0.00001418131444
  Self energy of the core charge distribution:               -766.83425392616255
  Core Hamiltonian energy:                                    231.34674851135651
  Hartree energy:                                             308.80055652158461
  Exchange-correlation energy:                                -95.52342237051960
  Dispersion energy:                                           -0.11982647971268
  Electronic entropic energy:                                  -0.00000000000001
  Fermi energy:                                                -0.27458756549171

  Total energy:                                              -322.33018356213927

 ENERGY| Total FORCE_EVAL ( QS ) energy [hartree]           -322.330153085549796

 OPT| **************************************************************************
 OPT| Step number                                                              1
 OPT| Optimization method                                                   BFGS
 OPT| Total energy [hartree]                                     -322.3301530855
 OPT| Effective energy change [hartree]                            -0.0156637034
 OPT| Predicted energy change [hartree]                            -0.0160979789
 OPT| Scaling factor                                                0.7334680350
 OPT| Step size                                                     0.3779452266
 OPT| Trust radius                                                  0.3779452266
 OPT| Decrease in energy                                                     YES
 OPT| Used time [s]                                                       33.712
 OPT|
 OPT| Maximum step size                                             0.3779452266
 OPT| Convergence limit for maximum step size                       0.0030000000
 OPT| Maximum step size is converged                                          NO
 OPT|
 OPT| RMS step size                                                 0.0287672319
 OPT| Convergence limit for RMS step size                           0.0015000000
 OPT| RMS step size is converged                                              NO
 OPT|
 OPT| Maximum gradient                                              0.0222685014
 OPT| Convergence limit for maximum gradient                        0.0004500000
 OPT| Maximum gradient is converged                                           NO
 OPT|
 OPT| RMS gradient                                                  0.0020641831
 OPT| Convergence limit for RMS gradient                            0.0003000000
 OPT| RMS gradient is converged                                               NO
 OPT| **************************************************************************
 OPT| Estimated peak process memory after this step [MiB]                    713

 --------------------------
 OPTIMIZATION STEP:      2
 --------------------------

 *** WARNING in fm/cp_fm_elpa.F:521 :: Setting real_kernel for ELPA failed ***


  Step is scaled; Scaling factor =  0.94006

 Number of electrons:                                                        218
 Number of occupied orbitals:                                                109
 Number of molecular orbitals:                                               146

 Number of orbital functions:                                                723
 Number of independent orbital functions:                                    723

 *** WARNING in fm/cp_fm_elpa.F:521 :: Setting real_kernel for ELPA failed ***


 Extrapolation method: ASPC


 SCF WAVEFUNCTION OPTIMIZATION

  Step     Update method      Time    Convergence         Total energy    Change
  ------------------------------------------------------------------------------

 *** WARNING in fm/cp_fm_elpa.F:521 :: Setting real_kernel for ELPA failed ***

     1 Broy./Diag. 0.40E+00    1.2     0.04350530      -322.3211815973 -3.22E+02

 *** WARNING in fm/cp_fm_elpa.F:521 :: Setting real_kernel for ELPA failed ***

     2 Broy./Diag. 0.40E+00    1.6     0.03463002      -322.1001619837  2.21E-01

 *** WARNING in fm/cp_fm_elpa.F:521 :: Setting real_kernel for ELPA failed ***

     3 Broy./Diag. 0.40E+00    1.6     0.00777801      -322.2967012558 -1.97E-01

 *** WARNING in fm/cp_fm_elpa.F:521 :: Setting real_kernel for ELPA failed ***

     4 Broy./Diag. 0.40E+00    1.7     0.00302858      -322.3285597868 -3.19E-02

 *** WARNING in fm/cp_fm_elpa.F:521 :: Setting real_kernel for ELPA failed ***

     5 Broy./Diag. 0.40E+00    1.7     0.00059755      -322.3461954421 -1.76E-02

 *** WARNING in fm/cp_fm_elpa.F:521 :: Setting real_kernel for ELPA failed ***

     6 Broy./Diag. 0.40E+00    1.7     0.00035646      -322.3380825105  8.11E-03

 *** WARNING in fm/cp_fm_elpa.F:521 :: Setting real_kernel for ELPA failed ***

     7 Broy./Diag. 0.40E+00    1.7     0.00021281      -322.3348713479  3.21E-03

 *** WARNING in fm/cp_fm_elpa.F:521 :: Setting real_kernel for ELPA failed ***

     8 Broy./Diag. 0.40E+00    1.8     0.00019537      -322.3355496303 -6.78E-04

 *** WARNING in fm/cp_fm_elpa.F:521 :: Setting real_kernel for ELPA failed ***

     9 Broy./Diag. 0.40E+00    1.8     0.00010471      -322.3366047504 -1.06E-03

 *** WARNING in fm/cp_fm_elpa.F:521 :: Setting real_kernel for ELPA failed ***

    10 Broy./Diag. 0.40E+00    1.8     0.00008145      -322.3364770720  1.28E-04

 *** WARNING in fm/cp_fm_elpa.F:521 :: Setting real_kernel for ELPA failed ***

    11 Broy./Diag. 0.40E+00    1.8     0.00006809      -322.3365201782 -4.31E-05

 *** WARNING in fm/cp_fm_elpa.F:521 :: Setting real_kernel for ELPA failed ***

    12 Broy./Diag. 0.40E+00    1.8     0.00003888      -322.3367075910 -1.87E-04

 *** WARNING in fm/cp_fm_elpa.F:521 :: Setting real_kernel for ELPA failed ***

    13 Broy./Diag. 0.40E+00    1.8     0.00001929      -322.3368398822 -1.32E-04

 *** WARNING in fm/cp_fm_elpa.F:521 :: Setting real_kernel for ELPA failed ***

    14 Broy./Diag. 0.40E+00    1.8     0.00002221      -322.3367838839  5.60E-05

 *** WARNING in fm/cp_fm_elpa.F:521 :: Setting real_kernel for ELPA failed ***

    15 Broy./Diag. 0.40E+00    1.8     0.00001994      -322.3367747786  9.11E-06

 *** WARNING in fm/cp_fm_elpa.F:521 :: Setting real_kernel for ELPA failed ***

    16 Broy./Diag. 0.40E+00    1.8     0.00000840      -322.3367671915  7.59E-06

 *** WARNING in fm/cp_fm_elpa.F:521 :: Setting real_kernel for ELPA failed ***

    17 Broy./Diag. 0.40E+00    1.9     0.00000444      -322.3367647925  2.40E-06

 *** WARNING in fm/cp_fm_elpa.F:521 :: Setting real_kernel for ELPA failed ***

    18 Broy./Diag. 0.40E+00    1.8     0.00000243      -322.3367336955  3.11E-05

 *** WARNING in fm/cp_fm_elpa.F:521 :: Setting real_kernel for ELPA failed ***

    19 Broy./Diag. 0.40E+00    1.8     0.00000094      -322.3367084151  2.53E-05

  *** SCF run converged in    19 steps ***


  Electronic density on regular grids:       -217.9999999988        0.0000000012
  Core density on regular grids:              219.9999999998       -0.0000000002
  Total charge density on r-space grids:        2.0000000010
  Total charge density g-space grids:           2.0000000010

  Overlap energy of the core charge distribution:               0.00001415685111
  Self energy of the core charge distribution:               -766.83425392616255
  Core Hamiltonian energy:                                    231.25173328980014
  Hartree energy:                                             308.86494249998964
  Exchange-correlation energy:                                -95.49961326158765
  Dispersion energy:                                           -0.11953117396721
  Electronic entropic energy:                                  -0.00000000000000
  Fermi energy:                                                -0.27129025983882

  Total energy:                                              -322.33670841507654

 ENERGY| Total FORCE_EVAL ( QS ) energy [hartree]           -322.336683369542186

 OPT| **************************************************************************
 OPT| Step number                                                              2
 OPT| Optimization method                                                   BFGS
 OPT| Total energy [hartree]                                     -322.3366833695
 OPT| Effective energy change [hartree]                            -0.0065302840
 OPT| Predicted energy change [hartree]                            -0.0063802017
 OPT| Scaling factor                                                0.9400567948
 OPT| Step size                                                     0.3779452266
 OPT| Trust radius                                                  0.3779452266
 OPT| Decrease in energy                                                     YES
 OPT| Used time [s]                                                       35.511
 OPT|
 OPT| Maximum step size                                             0.3779452266
 OPT| Convergence limit for maximum step size                       0.0030000000
 OPT| Maximum step size is converged                                          NO
 OPT|
 OPT| RMS step size                                                 0.0290018421
 OPT| Convergence limit for RMS step size                           0.0015000000
 OPT| RMS step size is converged                                              NO
 OPT|
 OPT| Maximum gradient                                              0.0092635946
 OPT| Convergence limit for maximum gradient                        0.0004500000
 OPT| Maximum gradient is converged                                           NO
 OPT|
 OPT| RMS gradient                                                  0.0017554211
 OPT| Convergence limit for RMS gradient                            0.0003000000
 OPT| RMS gradient is converged                                               NO
 OPT| **************************************************************************
 OPT| Estimated peak process memory after this step [MiB]                    713

 --------------------------
 OPTIMIZATION STEP:      3
 --------------------------

 *** WARNING in fm/cp_fm_elpa.F:521 :: Setting real_kernel for ELPA failed ***


 Number of electrons:                                                        218
 Number of occupied orbitals:                                                109
 Number of molecular orbitals:                                               146

 Number of orbital functions:                                                723
 Number of independent orbital functions:                                    723

 *** WARNING in fm/cp_fm_elpa.F:521 :: Setting real_kernel for ELPA failed ***


 Extrapolation method: ASPC


 SCF WAVEFUNCTION OPTIMIZATION

  Step     Update method      Time    Convergence         Total energy    Change
  ------------------------------------------------------------------------------

 *** WARNING in fm/cp_fm_elpa.F:521 :: Setting real_kernel for ELPA failed ***

     1 Broy./Diag. 0.40E+00    1.2     0.06856783      -322.3234685796 -3.22E+02

 *** WARNING in fm/cp_fm_elpa.F:521 :: Setting real_kernel for ELPA failed ***

     2 Broy./Diag. 0.40E+00    1.6     0.00575778      -322.2408353560  8.26E-02

 *** WARNING in fm/cp_fm_elpa.F:521 :: Setting real_kernel for ELPA failed ***

     3 Broy./Diag. 0.40E+00    1.6     0.00259622      -322.3238028341 -8.30E-02

 *** WARNING in fm/cp_fm_elpa.F:521 :: Setting real_kernel for ELPA failed ***

     4 Broy./Diag. 0.40E+00    1.7     0.00112528      -322.3427645095 -1.90E-02

 *** WARNING in fm/cp_fm_elpa.F:521 :: Setting real_kernel for ELPA failed ***

     5 Broy./Diag. 0.40E+00    1.7     0.00043594      -322.3448890613 -2.12E-03

 *** WARNING in fm/cp_fm_elpa.F:521 :: Setting real_kernel for ELPA failed ***

     6 Broy./Diag. 0.40E+00    1.7     0.00022224      -322.3404868016  4.40E-03

 *** WARNING in fm/cp_fm_elpa.F:521 :: Setting real_kernel for ELPA failed ***

     7 Broy./Diag. 0.40E+00    1.7     0.00009278      -322.3393271704  1.16E-03

 *** WARNING in fm/cp_fm_elpa.F:521 :: Setting real_kernel for ELPA failed ***

     8 Broy./Diag. 0.40E+00    1.8     0.00009823      -322.3395636056 -2.36E-04

 *** WARNING in fm/cp_fm_elpa.F:521 :: Setting real_kernel for ELPA failed ***

     9 Broy./Diag. 0.40E+00    1.8     0.00005151      -322.3396624154 -9.88E-05

 *** WARNING in fm/cp_fm_elpa.F:521 :: Setting real_kernel for ELPA failed ***

    10 Broy./Diag. 0.40E+00    1.8     0.00004058      -322.3394779852  1.84E-04

 *** WARNING in fm/cp_fm_elpa.F:521 :: Setting real_kernel for ELPA failed ***

    11 Broy./Diag. 0.40E+00    1.8     0.00002762      -322.3395039596 -2.60E-05

 *** WARNING in fm/cp_fm_elpa.F:521 :: Setting real_kernel for ELPA failed ***

    12 Broy./Diag. 0.40E+00    1.8     0.00002125      -322.3395709435 -6.70E-05

 *** WARNING in fm/cp_fm_elpa.F:521 :: Setting real_kernel for ELPA failed ***

    13 Broy./Diag. 0.40E+00    1.8     0.00000675      -322.3396380514 -6.71E-05

 *** WARNING in fm/cp_fm_elpa.F:521 :: Setting real_kernel for ELPA failed ***

    14 Broy./Diag. 0.40E+00    1.8     0.00000993      -322.3395759631  6.21E-05

 *** WARNING in fm/cp_fm_elpa.F:521 :: Setting real_kernel for ELPA failed ***

    15 Broy./Diag. 0.40E+00    1.8     0.00000904      -322.3395807295 -4.77E-06

 *** WARNING in fm/cp_fm_elpa.F:521 :: Setting real_kernel for ELPA failed ***

    16 Broy./Diag. 0.40E+00    1.8     0.00000475      -322.3395830474 -2.32E-06

 *** WARNING in fm/cp_fm_elpa.F:521 :: Setting real_kernel for ELPA failed ***

    17 Broy./Diag. 0.40E+00    1.8     0.00000247      -322.3395825654  4.82E-07

 *** WARNING in fm/cp_fm_elpa.F:521 :: Setting real_kernel for ELPA failed ***

    18 Broy./Diag. 0.40E+00    1.8     0.00000116      -322.3395691730  1.34E-05

 *** WARNING in fm/cp_fm_elpa.F:521 :: Setting real_kernel for ELPA failed ***

    19 Broy./Diag. 0.40E+00    1.8     0.00000057      -322.3395614462  7.73E-06

  *** SCF run converged in    19 steps ***


  Electronic density on regular grids:       -217.9999999992        0.0000000008
  Core density on regular grids:              219.9999999998       -0.0000000002
  Total charge density on r-space grids:        2.0000000007
  Total charge density g-space grids:           2.0000000007

  Overlap energy of the core charge distribution:               0.00001410585886
  Self energy of the core charge distribution:               -766.83425392616255
  Core Hamiltonian energy:                                    231.19925015289326
  Hartree energy:                                             308.89996039227458
  Exchange-correlation energy:                                -95.48517521798476
  Dispersion energy:                                           -0.11935695309513
  Electronic entropic energy:                                  -0.00000000000000
  Fermi energy:                                                -0.26885018066658

  Total energy:                                              -322.33956144621573

 ENERGY| Total FORCE_EVAL ( QS ) energy [hartree]           -322.339551035974750

 OPT| **************************************************************************
 OPT| Step number                                                              3
 OPT| Optimization method                                                   BFGS
 OPT| Total energy [hartree]                                     -322.3395510360
 OPT| Effective energy change [hartree]                            -0.0028676664
 OPT| Predicted energy change [hartree]                            -0.0030529398
 OPT| Scaling factor                                                0.9400567948
 OPT| Step size                                                     0.3000674659
 OPT| Trust radius                                                  0.3779452266
 OPT| Decrease in energy                                                     YES
 OPT| Used time [s]                                                       34.879
 OPT|
 OPT| Maximum step size                                             0.3000674659
 OPT| Convergence limit for maximum step size                       0.0030000000
 OPT| Maximum step size is converged                                          NO
 OPT|
 OPT| RMS step size                                                 0.0242149677
 OPT| Convergence limit for RMS step size                           0.0015000000
 OPT| RMS step size is converged                                              NO
 OPT|
 OPT| Maximum gradient                                              0.0083109000
 OPT| Convergence limit for maximum gradient                        0.0004500000
 OPT| Maximum gradient is converged                                           NO
 OPT|
 OPT| RMS gradient                                                  0.0014224208
 OPT| Convergence limit for RMS gradient                            0.0003000000
 OPT| RMS gradient is converged                                               NO
 OPT| **************************************************************************
 OPT| Estimated peak process memory after this step [MiB]                    715

 --------------------------
 OPTIMIZATION STEP:      4
 --------------------------

 *** WARNING in fm/cp_fm_elpa.F:521 :: Setting real_kernel for ELPA failed ***


 Number of electrons:                                                        218
 Number of occupied orbitals:                                                109
 Number of molecular orbitals:                                               146

 Number of orbital functions:                                                723
 Number of independent orbital functions:                                    723

 *** WARNING in fm/cp_fm_elpa.F:521 :: Setting real_kernel for ELPA failed ***


 Extrapolation method: ASPC


 SCF WAVEFUNCTION OPTIMIZATION

  Step     Update method      Time    Convergence         Total energy    Change
  ------------------------------------------------------------------------------

 *** WARNING in fm/cp_fm_elpa.F:521 :: Setting real_kernel for ELPA failed ***

     1 Broy./Diag. 0.40E+00    1.2     0.03819037      -322.3279875636 -3.22E+02

 *** WARNING in fm/cp_fm_elpa.F:521 :: Setting real_kernel for ELPA failed ***

     2 Broy./Diag. 0.40E+00    1.6     0.01159558      -322.2456211057  8.24E-02

 *** WARNING in fm/cp_fm_elpa.F:521 :: Setting real_kernel for ELPA failed ***

     3 Broy./Diag. 0.40E+00    1.7     0.00401929      -322.3231392408 -7.75E-02

 *** WARNING in fm/cp_fm_elpa.F:521 :: Setting real_kernel for ELPA failed ***

     4 Broy./Diag. 0.40E+00    1.7     0.00222948      -322.3369643310 -1.38E-02

 *** WARNING in fm/cp_fm_elpa.F:521 :: Setting real_kernel for ELPA failed ***

     5 Broy./Diag. 0.40E+00    1.7     0.00050358      -322.3442084330 -7.24E-03

 *** WARNING in fm/cp_fm_elpa.F:521 :: Setting real_kernel for ELPA failed ***

     6 Broy./Diag. 0.40E+00    1.7     0.00014289      -322.3404563349  3.75E-03

 *** WARNING in fm/cp_fm_elpa.F:521 :: Setting real_kernel for ELPA failed ***

     7 Broy./Diag. 0.40E+00    1.7     0.00004271      -322.3397182378  7.38E-04

 *** WARNING in fm/cp_fm_elpa.F:521 :: Setting real_kernel for ELPA failed ***

     8 Broy./Diag. 0.40E+00    1.8     0.00005664      -322.3399999832 -2.82E-04

 *** WARNING in fm/cp_fm_elpa.F:521 :: Setting real_kernel for ELPA failed ***

     9 Broy./Diag. 0.40E+00    1.8     0.00002975      -322.3404326996 -4.33E-04

 *** WARNING in fm/cp_fm_elpa.F:521 :: Setting real_kernel for ELPA failed ***

    10 Broy./Diag. 0.40E+00    1.8     0.00002848      -322.3404254427  7.26E-06

 *** WARNING in fm/cp_fm_elpa.F:521 :: Setting real_kernel for ELPA failed ***

    11 Broy./Diag. 0.40E+00    1.8     0.00002034      -322.3405076136 -8.22E-05

 *** WARNING in fm/cp_fm_elpa.F:521 :: Setting real_kernel for ELPA failed ***

    12 Broy./Diag. 0.40E+00    1.9     0.00001381      -322.3406164277 -1.09E-04

 *** WARNING in fm/cp_fm_elpa.F:521 :: Setting real_kernel for ELPA failed ***

    13 Broy./Diag. 0.40E+00    1.8     0.00000629      -322.3406994699 -8.30E-05

 *** WARNING in fm/cp_fm_elpa.F:521 :: Setting real_kernel for ELPA failed ***

    14 Broy./Diag. 0.40E+00    1.8     0.00000334      -322.3406846325  1.48E-05

 *** WARNING in fm/cp_fm_elpa.F:521 :: Setting real_kernel for ELPA failed ***

    15 Broy./Diag. 0.40E+00    1.8     0.00000255      -322.3406777881  6.84E-06

 *** WARNING in fm/cp_fm_elpa.F:521 :: Setting real_kernel for ELPA failed ***

    16 Broy./Diag. 0.40E+00    1.9     0.00000224      -322.3406815961 -3.81E-06

 *** WARNING in fm/cp_fm_elpa.F:521 :: Setting real_kernel for ELPA failed ***

    17 Broy./Diag. 0.40E+00    1.8     0.00000140      -322.3406819922 -3.96E-07

 *** WARNING in fm/cp_fm_elpa.F:521 :: Setting real_kernel for ELPA failed ***

    18 Broy./Diag. 0.40E+00    1.8     0.00000093      -322.3406738467  8.15E-06

  *** SCF run converged in    18 steps ***


  Electronic density on regular grids:       -217.9999999989        0.0000000011
  Core density on regular grids:              219.9999999998       -0.0000000002
  Total charge density on r-space grids:        2.0000000009
  Total charge density g-space grids:           2.0000000009

  Overlap energy of the core charge distribution:               0.00001412298972
  Self energy of the core charge distribution:               -766.83425392616255
  Core Hamiltonian energy:                                    231.19283813025157
  Hartree energy:                                             308.90352055526500
  Exchange-correlation energy:                                -95.48343186204204
  Dispersion energy:                                           -0.11936086702863
  Electronic entropic energy:                                  -0.00000000000000
  Fermi energy:                                                -0.26743179730753

  Total energy:                                              -322.34067384672699

 ENERGY| Total FORCE_EVAL ( QS ) energy [hartree]           -322.340663058827090

 OPT| **************************************************************************
 OPT| Step number                                                              4
 OPT| Optimization method                                                   BFGS
 OPT| Total energy [hartree]                                     -322.3406630588
 OPT| Effective energy change [hartree]                            -0.0011120229
 OPT| Predicted energy change [hartree]                            -0.0013144705
 OPT| Scaling factor                                                0.9400567948
 OPT| Step size                                                     0.1572343602
 OPT| Trust radius                                                  0.3779452266
 OPT| Decrease in energy                                                     YES
 OPT| Used time [s]                                                       33.773
 OPT|
 OPT| Maximum step size                                             0.1572343602
 OPT| Convergence limit for maximum step size                       0.0030000000
 OPT| Maximum step size is converged                                          NO
 OPT|
 OPT| RMS step size                                                 0.0153535557
 OPT| Convergence limit for RMS step size                           0.0015000000
 OPT| RMS step size is converged                                              NO
 OPT|
 OPT| Maximum gradient                                              0.0051348821
 OPT| Convergence limit for maximum gradient                        0.0004500000
 OPT| Maximum gradient is converged                                           NO
 OPT|
 OPT| RMS gradient                                                  0.0011364788
 OPT| Convergence limit for RMS gradient                            0.0003000000
 OPT| RMS gradient is converged                                               NO
 OPT| **************************************************************************
 OPT| Estimated peak process memory after this step [MiB]                    715

 --------------------------
 OPTIMIZATION STEP:      5
 --------------------------

 *** WARNING in fm/cp_fm_elpa.F:521 :: Setting real_kernel for ELPA failed ***


 Number of electrons:                                                        218
 Number of occupied orbitals:                                                109
 Number of molecular orbitals:                                               146

 Number of orbital functions:                                                723
 Number of independent orbital functions:                                    723

 *** WARNING in fm/cp_fm_elpa.F:521 :: Setting real_kernel for ELPA failed ***


 Extrapolation method: ASPC


 SCF WAVEFUNCTION OPTIMIZATION

  Step     Update method      Time    Convergence         Total energy    Change
  ------------------------------------------------------------------------------

 *** WARNING in fm/cp_fm_elpa.F:521 :: Setting real_kernel for ELPA failed ***

     1 Broy./Diag. 0.40E+00    1.2     0.02252116      -322.3335992252 -3.22E+02

 *** WARNING in fm/cp_fm_elpa.F:521 :: Setting real_kernel for ELPA failed ***

     2 Broy./Diag. 0.40E+00    1.6     0.00683807      -322.3365648097 -2.97E-03

 *** WARNING in fm/cp_fm_elpa.F:521 :: Setting real_kernel for ELPA failed ***

     3 Broy./Diag. 0.40E+00    1.6     0.00228524      -322.3401596198 -3.59E-03

 *** WARNING in fm/cp_fm_elpa.F:521 :: Setting real_kernel for ELPA failed ***

     4 Broy./Diag. 0.40E+00    1.7     0.00154528      -322.3460781360 -5.92E-03

 *** WARNING in fm/cp_fm_elpa.F:521 :: Setting real_kernel for ELPA failed ***

     5 Broy./Diag. 0.40E+00    1.7     0.00030351      -322.3423199022  3.76E-03

 *** WARNING in fm/cp_fm_elpa.F:521 :: Setting real_kernel for ELPA failed ***

     6 Broy./Diag. 0.40E+00    1.7     0.00013295      -322.3420995547  2.20E-04

 *** WARNING in fm/cp_fm_elpa.F:521 :: Setting real_kernel for ELPA failed ***

     7 Broy./Diag. 0.40E+00    1.7     0.00006004      -322.3416849395  4.15E-04

 *** WARNING in fm/cp_fm_elpa.F:521 :: Setting real_kernel for ELPA failed ***

     8 Broy./Diag. 0.40E+00    1.8     0.00007022      -322.3416623755  2.26E-05

 *** WARNING in fm/cp_fm_elpa.F:521 :: Setting real_kernel for ELPA failed ***

     9 Broy./Diag. 0.40E+00    1.8     0.00004274      -322.3414976024  1.65E-04

 *** WARNING in fm/cp_fm_elpa.F:521 :: Setting real_kernel for ELPA failed ***

    10 Broy./Diag. 0.40E+00    1.8     0.00002183      -322.3413906088  1.07E-04

 *** WARNING in fm/cp_fm_elpa.F:521 :: Setting real_kernel for ELPA failed ***

    11 Broy./Diag. 0.40E+00    1.8     0.00001122      -322.3413299595  6.06E-05

 *** WARNING in fm/cp_fm_elpa.F:521 :: Setting real_kernel for ELPA failed ***

    12 Broy./Diag. 0.40E+00    1.8     0.00001019      -322.3413704702 -4.05E-05

 *** WARNING in fm/cp_fm_elpa.F:521 :: Setting real_kernel for ELPA failed ***

    13 Broy./Diag. 0.40E+00    1.8     0.00000449      -322.3413739322 -3.46E-06

 *** WARNING in fm/cp_fm_elpa.F:521 :: Setting real_kernel for ELPA failed ***

    14 Broy./Diag. 0.40E+00    1.8     0.00000371      -322.3413683222  5.61E-06

 *** WARNING in fm/cp_fm_elpa.F:521 :: Setting real_kernel for ELPA failed ***

    15 Broy./Diag. 0.40E+00    1.8     0.00000181      -322.3413671404  1.18E-06

 *** WARNING in fm/cp_fm_elpa.F:521 :: Setting real_kernel for ELPA failed ***

    16 Broy./Diag. 0.40E+00    1.8     0.00000121      -322.3413714147 -4.27E-06

 *** WARNING in fm/cp_fm_elpa.F:521 :: Setting real_kernel for ELPA failed ***

    17 Broy./Diag. 0.40E+00    1.8     0.00000065      -322.3413669907  4.42E-06

  *** SCF run converged in    17 steps ***


  Electronic density on regular grids:       -217.9999999989        0.0000000011
  Core density on regular grids:              219.9999999998       -0.0000000002
  Total charge density on r-space grids:        2.0000000009
  Total charge density g-space grids:           2.0000000009

  Overlap energy of the core charge distribution:               0.00001412457877
  Self energy of the core charge distribution:               -766.83425392616255
  Core Hamiltonian energy:                                    231.19652205196905
  Hartree energy:                                             308.89980262314816
  Exchange-correlation energy:                                -95.48412787355184
  Dispersion energy:                                           -0.11932399065242
  Electronic entropic energy:                                  -0.00000000000000
  Fermi energy:                                                -0.26703065775895

  Total energy:                                              -322.34136699067079

 ENERGY| Total FORCE_EVAL ( QS ) energy [hartree]           -322.341354250732309

 OPT| **************************************************************************
 OPT| Step number                                                              5
 OPT| Optimization method                                                   BFGS
 OPT| Total energy [hartree]                                     -322.3413542507
 OPT| Effective energy change [hartree]                            -0.0006911919
 OPT| Predicted energy change [hartree]                            -0.0006049217
 OPT| Scaling factor                                                0.9400567948
 OPT| Step size                                                     0.0592350442
 OPT| Trust radius                                                  0.3779452266
 OPT| Decrease in energy                                                     YES
 OPT| Used time [s]                                                       31.337
 OPT|
 OPT| Maximum step size                                             0.0592350442
 OPT| Convergence limit for maximum step size                       0.0030000000
 OPT| Maximum step size is converged                                          NO
 OPT|
 OPT| RMS step size                                                 0.0084568975
 OPT| Convergence limit for RMS step size                           0.0015000000
 OPT| RMS step size is converged                                              NO
 OPT|
 OPT| Maximum gradient                                              0.0038662152
 OPT| Convergence limit for maximum gradient                        0.0004500000
 OPT| Maximum gradient is converged                                           NO
 OPT|
 OPT| RMS gradient                                                  0.0007759546
 OPT| Convergence limit for RMS gradient                            0.0003000000
 OPT| RMS gradient is converged                                               NO
 OPT| **************************************************************************
 OPT| Estimated peak process memory after this step [MiB]                    715

 --------------------------
 OPTIMIZATION STEP:      6
 --------------------------

 *** WARNING in fm/cp_fm_elpa.F:521 :: Setting real_kernel for ELPA failed ***


 Number of electrons:                                                        218
 Number of occupied orbitals:                                                109
 Number of molecular orbitals:                                               146

 Number of orbital functions:                                                723
 Number of independent orbital functions:                                    723

 *** WARNING in fm/cp_fm_elpa.F:521 :: Setting real_kernel for ELPA failed ***


 Extrapolation method: ASPC


 SCF WAVEFUNCTION OPTIMIZATION

  Step     Update method      Time    Convergence         Total energy    Change
  ------------------------------------------------------------------------------

 *** WARNING in fm/cp_fm_elpa.F:521 :: Setting real_kernel for ELPA failed ***

     1 Broy./Diag. 0.40E+00    1.1     0.04128669      -322.3367336136 -3.22E+02

 *** WARNING in fm/cp_fm_elpa.F:521 :: Setting real_kernel for ELPA failed ***

     2 Broy./Diag. 0.40E+00    1.5     0.00302783      -322.3258982501  1.08E-02

 *** WARNING in fm/cp_fm_elpa.F:521 :: Setting real_kernel for ELPA failed ***

     3 Broy./Diag. 0.40E+00    1.6     0.00138300      -322.3416443349 -1.57E-02

 *** WARNING in fm/cp_fm_elpa.F:521 :: Setting real_kernel for ELPA failed ***

     4 Broy./Diag. 0.40E+00    1.6     0.00095052      -322.3408013468  8.43E-04

 *** WARNING in fm/cp_fm_elpa.F:521 :: Setting real_kernel for ELPA failed ***

     5 Broy./Diag. 0.40E+00    1.6     0.00029818      -322.3426707158 -1.87E-03

 *** WARNING in fm/cp_fm_elpa.F:521 :: Setting real_kernel for ELPA failed ***

     6 Broy./Diag. 0.40E+00    1.6     0.00007493      -322.3419255024  7.45E-04

 *** WARNING in fm/cp_fm_elpa.F:521 :: Setting real_kernel for ELPA failed ***

     7 Broy./Diag. 0.40E+00    1.7     0.00002335      -322.3420727528 -1.47E-04

 *** WARNING in fm/cp_fm_elpa.F:521 :: Setting real_kernel for ELPA failed ***

     8 Broy./Diag. 0.40E+00    1.7     0.00003104      -322.3420722436  5.09E-07

 *** WARNING in fm/cp_fm_elpa.F:521 :: Setting real_kernel for ELPA failed ***

     9 Broy./Diag. 0.40E+00    1.7     0.00001684      -322.3420435369  2.87E-05

 *** WARNING in fm/cp_fm_elpa.F:521 :: Setting real_kernel for ELPA failed ***

    10 Broy./Diag. 0.40E+00    1.8     0.00001156      -322.3419787447  6.48E-05

 *** WARNING in fm/cp_fm_elpa.F:521 :: Setting real_kernel for ELPA failed ***

    11 Broy./Diag. 0.40E+00    1.8     0.00000732      -322.3419778697  8.75E-07

 *** WARNING in fm/cp_fm_elpa.F:521 :: Setting real_kernel for ELPA failed ***

    12 Broy./Diag. 0.40E+00    1.8     0.00000596      -322.3419812428 -3.37E-06

 *** WARNING in fm/cp_fm_elpa.F:521 :: Setting real_kernel for ELPA failed ***

    13 Broy./Diag. 0.40E+00    1.8     0.00000262      -322.3419859582 -4.72E-06

 *** WARNING in fm/cp_fm_elpa.F:521 :: Setting real_kernel for ELPA failed ***

    14 Broy./Diag. 0.40E+00    1.8     0.00000279      -322.3419765469  9.41E-06

 *** WARNING in fm/cp_fm_elpa.F:521 :: Setting real_kernel for ELPA failed ***

    15 Broy./Diag. 0.40E+00    1.8     0.00000209      -322.3419825045 -5.96E-06

 *** WARNING in fm/cp_fm_elpa.F:521 :: Setting real_kernel for ELPA failed ***

    16 Broy./Diag. 0.40E+00    1.8     0.00000139      -322.3419834735 -9.69E-07

 *** WARNING in fm/cp_fm_elpa.F:521 :: Setting real_kernel for ELPA failed ***

    17 Broy./Diag. 0.40E+00    1.8     0.00000060      -322.3419848567 -1.38E-06

  *** SCF run converged in    17 steps ***


  Electronic density on regular grids:       -217.9999999990        0.0000000010
  Core density on regular grids:              219.9999999998       -0.0000000002
  Total charge density on r-space grids:        2.0000000008
  Total charge density g-space grids:           2.0000000008

  Overlap energy of the core charge distribution:               0.00001410289835
  Self energy of the core charge distribution:               -766.83425392616255
  Core Hamiltonian energy:                                    231.19077128653120
  Hartree energy:                                             308.90358864228290
  Exchange-correlation energy:                                -95.48282594367279
  Dispersion energy:                                           -0.11927901861846
  Electronic entropic energy:                                  -0.00000000000000
  Fermi energy:                                                -0.26718170089009

  Total energy:                                              -322.34198485674125

 ENERGY| Total FORCE_EVAL ( QS ) energy [hartree]           -322.341985437603114

 OPT| **************************************************************************
 OPT| Step number                                                              6
 OPT| Optimization method                                                   BFGS
 OPT| Total energy [hartree]                                     -322.3419854376
 OPT| Effective energy change [hartree]                            -0.0006311869
 OPT| Predicted energy change [hartree]                            -0.0005291896
 OPT| Scaling factor                                                0.9400567948
 OPT| Step size                                                     0.0893525522
 OPT| Trust radius                                                  0.3779452266
 OPT| Decrease in energy                                                     YES
 OPT| Used time [s]                                                       30.526
 OPT|
 OPT| Maximum step size                                             0.0893525522
 OPT| Convergence limit for maximum step size                       0.0030000000
 OPT| Maximum step size is converged                                          NO
 OPT|
 OPT| RMS step size                                                 0.0111395257
 OPT| Convergence limit for RMS step size                           0.0015000000
 OPT| RMS step size is converged                                              NO
 OPT|
 OPT| Maximum gradient                                              0.0031330488
 OPT| Convergence limit for maximum gradient                        0.0004500000
 OPT| Maximum gradient is converged                                           NO
 OPT|
 OPT| RMS gradient                                                  0.0008405367
 OPT| Convergence limit for RMS gradient                            0.0003000000
 OPT| RMS gradient is converged                                               NO
 OPT| **************************************************************************
 OPT| Estimated peak process memory after this step [MiB]                    715

 --------------------------
 OPTIMIZATION STEP:      7
 --------------------------

 *** WARNING in fm/cp_fm_elpa.F:521 :: Setting real_kernel for ELPA failed ***


 Number of electrons:                                                        218
 Number of occupied orbitals:                                                109
 Number of molecular orbitals:                                               146

 Number of orbital functions:                                                723
 Number of independent orbital functions:                                    723

 *** WARNING in fm/cp_fm_elpa.F:521 :: Setting real_kernel for ELPA failed ***


 Extrapolation method: ASPC


 SCF WAVEFUNCTION OPTIMIZATION

  Step     Update method      Time    Convergence         Total energy    Change
  ------------------------------------------------------------------------------

 *** WARNING in fm/cp_fm_elpa.F:521 :: Setting real_kernel for ELPA failed ***

     1 Broy./Diag. 0.40E+00    1.1     0.04057347      -322.3368759000 -3.22E+02

 *** WARNING in fm/cp_fm_elpa.F:521 :: Setting real_kernel for ELPA failed ***

     2 Broy./Diag. 0.40E+00    1.5     0.00251817      -322.3252735565  1.16E-02

 *** WARNING in fm/cp_fm_elpa.F:521 :: Setting real_kernel for ELPA failed ***

     3 Broy./Diag. 0.40E+00    1.6     0.00198812      -322.3406336429 -1.54E-02

 *** WARNING in fm/cp_fm_elpa.F:521 :: Setting real_kernel for ELPA failed ***

     4 Broy./Diag. 0.40E+00    1.6     0.00048444      -322.3416976709 -1.06E-03

 *** WARNING in fm/cp_fm_elpa.F:521 :: Setting real_kernel for ELPA failed ***

     5 Broy./Diag. 0.40E+00    1.6     0.00023914      -322.3424982129 -8.01E-04

 *** WARNING in fm/cp_fm_elpa.F:521 :: Setting real_kernel for ELPA failed ***

     6 Broy./Diag. 0.40E+00    1.6     0.00009099      -322.3421610279  3.37E-04

 *** WARNING in fm/cp_fm_elpa.F:521 :: Setting real_kernel for ELPA failed ***

     7 Broy./Diag. 0.40E+00    1.7     0.00007289      -322.3427040601 -5.43E-04

 *** WARNING in fm/cp_fm_elpa.F:521 :: Setting real_kernel for ELPA failed ***

     8 Broy./Diag. 0.40E+00    1.7     0.00005173      -322.3428502272 -1.46E-04

 *** WARNING in fm/cp_fm_elpa.F:521 :: Setting real_kernel for ELPA failed ***

     9 Broy./Diag. 0.40E+00    1.7     0.00002240      -322.3428658957 -1.57E-05

 *** WARNING in fm/cp_fm_elpa.F:521 :: Setting real_kernel for ELPA failed ***

    10 Broy./Diag. 0.40E+00    1.8     0.00002969      -322.3428006925  6.52E-05

 *** WARNING in fm/cp_fm_elpa.F:521 :: Setting real_kernel for ELPA failed ***

    11 Broy./Diag. 0.40E+00    1.8     0.00001668      -322.3428176125 -1.69E-05

 *** WARNING in fm/cp_fm_elpa.F:521 :: Setting real_kernel for ELPA failed ***

    12 Broy./Diag. 0.40E+00    1.8     0.00001303      -322.3427771969  4.04E-05

 *** WARNING in fm/cp_fm_elpa.F:521 :: Setting real_kernel for ELPA failed ***

    13 Broy./Diag. 0.40E+00    1.8     0.00000536      -322.3427769694  2.27E-07

 *** WARNING in fm/cp_fm_elpa.F:521 :: Setting real_kernel for ELPA failed ***

    14 Broy./Diag. 0.40E+00    1.7     0.00000394      -322.3427789087 -1.94E-06

 *** WARNING in fm/cp_fm_elpa.F:521 :: Setting real_kernel for ELPA failed ***

    15 Broy./Diag. 0.40E+00    1.7     0.00000278      -322.3427988789 -2.00E-05

 *** WARNING in fm/cp_fm_elpa.F:521 :: Setting real_kernel for ELPA failed ***

    16 Broy./Diag. 0.40E+00    1.7     0.00000128      -322.3428063961 -7.52E-06

 *** WARNING in fm/cp_fm_elpa.F:521 :: Setting real_kernel for ELPA failed ***

    17 Broy./Diag. 0.40E+00    1.7     0.00000091      -322.3428065651 -1.69E-07

  *** SCF run converged in    17 steps ***


  Electronic density on regular grids:       -217.9999999998        0.0000000002
  Core density on regular grids:              219.9999999998       -0.0000000002
  Total charge density on r-space grids:        2.0000000001
  Total charge density g-space grids:           2.0000000001

  Overlap energy of the core charge distribution:               0.00001405761063
  Self energy of the core charge distribution:               -766.83425392616255
  Core Hamiltonian energy:                                    231.17880715890948
  Hartree energy:                                             308.91135666660506
  Exchange-correlation energy:                                -95.47952739712230
  Dispersion energy:                                           -0.11920312498816
  Electronic entropic energy:                                  -0.00000000000000
  Fermi energy:                                                -0.26771972292845

  Total energy:                                              -322.34280656514778

 ENERGY| Total FORCE_EVAL ( QS ) energy [hartree]           -322.342807256585843

 OPT| **************************************************************************
 OPT| Step number                                                              7
 OPT| Optimization method                                                   BFGS
 OPT| Total energy [hartree]                                     -322.3428072566
 OPT| Effective energy change [hartree]                            -0.0008218190
 OPT| Predicted energy change [hartree]                            -0.0007021482
 OPT| Scaling factor                                                0.9400567948
 OPT| Step size                                                     0.1685922328
 OPT| Trust radius                                                  0.3779452266
 OPT| Decrease in energy                                                     YES
 OPT| Used time [s]                                                       30.112
 OPT|
 OPT| Maximum step size                                             0.1685922328
 OPT| Convergence limit for maximum step size                       0.0030000000
 OPT| Maximum step size is converged                                          NO
 OPT|
 OPT| RMS step size                                                 0.0188990918
 OPT| Convergence limit for RMS step size                           0.0015000000
 OPT| RMS step size is converged                                              NO
 OPT|
 OPT| Maximum gradient                                              0.0033643119
 OPT| Convergence limit for maximum gradient                        0.0004500000
 OPT| Maximum gradient is converged                                           NO
 OPT|
 OPT| RMS gradient                                                  0.0009483900
 OPT| Convergence limit for RMS gradient                            0.0003000000
 OPT| RMS gradient is converged                                               NO
 OPT| **************************************************************************
 OPT| Estimated peak process memory after this step [MiB]                    715

 --------------------------
 OPTIMIZATION STEP:      8
 --------------------------

 *** WARNING in fm/cp_fm_elpa.F:521 :: Setting real_kernel for ELPA failed ***


 Number of electrons:                                                        218
 Number of occupied orbitals:                                                109
 Number of molecular orbitals:                                               146

 Number of orbital functions:                                                723
 Number of independent orbital functions:                                    723

 *** WARNING in fm/cp_fm_elpa.F:521 :: Setting real_kernel for ELPA failed ***


 Extrapolation method: ASPC


 SCF WAVEFUNCTION OPTIMIZATION

  Step     Update method      Time    Convergence         Total energy    Change
  ------------------------------------------------------------------------------

 *** WARNING in fm/cp_fm_elpa.F:521 :: Setting real_kernel for ELPA failed ***

     1 Broy./Diag. 0.40E+00    1.1     0.04977862      -322.3362688445 -3.22E+02

 *** WARNING in fm/cp_fm_elpa.F:521 :: Setting real_kernel for ELPA failed ***

     2 Broy./Diag. 0.40E+00    1.5     0.00475098      -322.3351776395  1.09E-03

 *** WARNING in fm/cp_fm_elpa.F:521 :: Setting real_kernel for ELPA failed ***

     3 Broy./Diag. 0.40E+00    1.5     0.00248508      -322.3400147138 -4.84E-03

 *** WARNING in fm/cp_fm_elpa.F:521 :: Setting real_kernel for ELPA failed ***

     4 Broy./Diag. 0.40E+00    1.5     0.00152790      -322.3444638413 -4.45E-03

 *** WARNING in fm/cp_fm_elpa.F:521 :: Setting real_kernel for ELPA failed ***

     5 Broy./Diag. 0.40E+00    1.5     0.00028370      -322.3415793775  2.88E-03

 *** WARNING in fm/cp_fm_elpa.F:521 :: Setting real_kernel for ELPA failed ***

     6 Broy./Diag. 0.40E+00    1.5     0.00012319      -322.3429631410 -1.38E-03

 *** WARNING in fm/cp_fm_elpa.F:521 :: Setting real_kernel for ELPA failed ***

     7 Broy./Diag. 0.40E+00    1.6     0.00007700      -322.3433462702 -3.83E-04

 *** WARNING in fm/cp_fm_elpa.F:521 :: Setting real_kernel for ELPA failed ***

     8 Broy./Diag. 0.40E+00    1.6     0.00006605      -322.3438336732 -4.87E-04

 *** WARNING in fm/cp_fm_elpa.F:521 :: Setting real_kernel for ELPA failed ***

     9 Broy./Diag. 0.40E+00    1.6     0.00003698      -322.3437920004  4.17E-05

 *** WARNING in fm/cp_fm_elpa.F:521 :: Setting real_kernel for ELPA failed ***

    10 Broy./Diag. 0.40E+00    1.7     0.00004130      -322.3437558385  3.62E-05

 *** WARNING in fm/cp_fm_elpa.F:521 :: Setting real_kernel for ELPA failed ***

    11 Broy./Diag. 0.40E+00    1.7     0.00003074      -322.3437543207  1.52E-06

 *** WARNING in fm/cp_fm_elpa.F:521 :: Setting real_kernel for ELPA failed ***

    12 Broy./Diag. 0.40E+00    1.7     0.00002330      -322.3437202139  3.41E-05

 *** WARNING in fm/cp_fm_elpa.F:521 :: Setting real_kernel for ELPA failed ***

    13 Broy./Diag. 0.40E+00    1.7     0.00000844      -322.3436974300  2.28E-05

 *** WARNING in fm/cp_fm_elpa.F:521 :: Setting real_kernel for ELPA failed ***

    14 Broy./Diag. 0.40E+00    1.7     0.00000437      -322.3437073026 -9.87E-06

 *** WARNING in fm/cp_fm_elpa.F:521 :: Setting real_kernel for ELPA failed ***

    15 Broy./Diag. 0.40E+00    1.7     0.00000195      -322.3437197502 -1.24E-05

 *** WARNING in fm/cp_fm_elpa.F:521 :: Setting real_kernel for ELPA failed ***

    16 Broy./Diag. 0.40E+00    1.7     0.00000152      -322.3437342106 -1.45E-05

 *** WARNING in fm/cp_fm_elpa.F:521 :: Setting real_kernel for ELPA failed ***

    17 Broy./Diag. 0.40E+00    1.7     0.00000109      -322.3437325650  1.65E-06

 *** WARNING in fm/cp_fm_elpa.F:521 :: Setting real_kernel for ELPA failed ***

    18 Broy./Diag. 0.40E+00    1.7     0.00000082      -322.3437344347 -1.87E-06

  *** SCF run converged in    18 steps ***


  Electronic density on regular grids:       -218.0000000007       -0.0000000007
  Core density on regular grids:              219.9999999998       -0.0000000002
  Total charge density on r-space grids:        1.9999999991
  Total charge density g-space grids:           1.9999999991

  Overlap energy of the core charge distribution:               0.00001400799292
  Self energy of the core charge distribution:               -766.83425392616255
  Core Hamiltonian energy:                                    231.17129180382494
  Hartree energy:                                             308.91546735786312
  Exchange-correlation energy:                                -95.47712053002986
  Dispersion energy:                                           -0.11913314814548
  Electronic entropic energy:                                  -0.00000000000000
  Fermi energy:                                                -0.26849943806507

  Total energy:                                              -322.34373443465688

 ENERGY| Total FORCE_EVAL ( QS ) energy [hartree]           -322.343742049254445

 OPT| **************************************************************************
 OPT| Step number                                                              8
 OPT| Optimization method                                                   BFGS
 OPT| Total energy [hartree]                                     -322.3437420493
 OPT| Effective energy change [hartree]                            -0.0009347927
 OPT| Predicted energy change [hartree]                            -0.0007736528
 OPT| Scaling factor                                                0.9400567948
 OPT| Step size                                                     0.2308868619
 OPT| Trust radius                                                  0.3779452266
 OPT| Decrease in energy                                                     YES
 OPT| Used time [s]                                                       30.578
 OPT|
 OPT| Maximum step size                                             0.2308868619
 OPT| Convergence limit for maximum step size                       0.0030000000
 OPT| Maximum step size is converged                                          NO
 OPT|
 OPT| RMS step size                                                 0.0242856220
 OPT| Convergence limit for RMS step size                           0.0015000000
 OPT| RMS step size is converged                                              NO
 OPT|
 OPT| Maximum gradient                                              0.0048111766
 OPT| Convergence limit for maximum gradient                        0.0004500000
 OPT| Maximum gradient is converged                                           NO
 OPT|
 OPT| RMS gradient                                                  0.0010936409
 OPT| Convergence limit for RMS gradient                            0.0003000000
 OPT| RMS gradient is converged                                               NO
 OPT| **************************************************************************
 OPT| Estimated peak process memory after this step [MiB]                    715

 --------------------------
 OPTIMIZATION STEP:      9
 --------------------------

 *** WARNING in fm/cp_fm_elpa.F:521 :: Setting real_kernel for ELPA failed ***


 Number of electrons:                                                        218
 Number of occupied orbitals:                                                109
 Number of molecular orbitals:                                               146

 Number of orbital functions:                                                723
 Number of independent orbital functions:                                    723

 *** WARNING in fm/cp_fm_elpa.F:521 :: Setting real_kernel for ELPA failed ***


 Extrapolation method: ASPC


 SCF WAVEFUNCTION OPTIMIZATION

  Step     Update method      Time    Convergence         Total energy    Change
  ------------------------------------------------------------------------------

 *** WARNING in fm/cp_fm_elpa.F:521 :: Setting real_kernel for ELPA failed ***

     1 Broy./Diag. 0.40E+00    1.1     0.05130685      -322.3363692722 -3.22E+02

 *** WARNING in fm/cp_fm_elpa.F:521 :: Setting real_kernel for ELPA failed ***

     2 Broy./Diag. 0.40E+00    1.5     0.00967733      -322.3721767345 -3.58E-02

 *** WARNING in fm/cp_fm_elpa.F:521 :: Setting real_kernel for ELPA failed ***

     3 Broy./Diag. 0.40E+00    1.5     0.00464683      -322.3411449171  3.10E-02

 *** WARNING in fm/cp_fm_elpa.F:521 :: Setting real_kernel for ELPA failed ***

     4 Broy./Diag. 0.40E+00    1.5     0.00205980      -322.3480721107 -6.93E-03

 *** WARNING in fm/cp_fm_elpa.F:521 :: Setting real_kernel for ELPA failed ***

     5 Broy./Diag. 0.40E+00    1.5     0.00018182      -322.3429773141  5.09E-03

 *** WARNING in fm/cp_fm_elpa.F:521 :: Setting real_kernel for ELPA failed ***

     6 Broy./Diag. 0.40E+00    1.5     0.00010144      -322.3442900529 -1.31E-03

 *** WARNING in fm/cp_fm_elpa.F:521 :: Setting real_kernel for ELPA failed ***

     7 Broy./Diag. 0.40E+00    1.6     0.00006817      -322.3447226619 -4.33E-04

 *** WARNING in fm/cp_fm_elpa.F:521 :: Setting real_kernel for ELPA failed ***

     8 Broy./Diag. 0.40E+00    1.6     0.00008222      -322.3447991901 -7.65E-05

 *** WARNING in fm/cp_fm_elpa.F:521 :: Setting real_kernel for ELPA failed ***

     9 Broy./Diag. 0.40E+00    1.6     0.00003529      -322.3445528658  2.46E-04

 *** WARNING in fm/cp_fm_elpa.F:521 :: Setting real_kernel for ELPA failed ***

    10 Broy./Diag. 0.40E+00    1.7     0.00003515      -322.3444526598  1.00E-04

 *** WARNING in fm/cp_fm_elpa.F:521 :: Setting real_kernel for ELPA failed ***

    11 Broy./Diag. 0.40E+00    1.7     0.00003256      -322.3443641670  8.85E-05

 *** WARNING in fm/cp_fm_elpa.F:521 :: Setting real_kernel for ELPA failed ***

    12 Broy./Diag. 0.40E+00    1.7     0.00002191      -322.3443110547  5.31E-05

 *** WARNING in fm/cp_fm_elpa.F:521 :: Setting real_kernel for ELPA failed ***

    13 Broy./Diag. 0.40E+00    1.7     0.00000806      -322.3442644914  4.66E-05

 *** WARNING in fm/cp_fm_elpa.F:521 :: Setting real_kernel for ELPA failed ***

    14 Broy./Diag. 0.40E+00    1.7     0.00000485      -322.3442911182 -2.66E-05

 *** WARNING in fm/cp_fm_elpa.F:521 :: Setting real_kernel for ELPA failed ***

    15 Broy./Diag. 0.40E+00    1.7     0.00000286      -322.3443063869 -1.53E-05

 *** WARNING in fm/cp_fm_elpa.F:521 :: Setting real_kernel for ELPA failed ***

    16 Broy./Diag. 0.40E+00    1.7     0.00000210      -322.3443239012 -1.75E-05

 *** WARNING in fm/cp_fm_elpa.F:521 :: Setting real_kernel for ELPA failed ***

    17 Broy./Diag. 0.40E+00    1.7     0.00000095      -322.3443215226  2.38E-06

  *** SCF run converged in    17 steps ***


  Electronic density on regular grids:       -218.0000000006       -0.0000000006
  Core density on regular grids:              219.9999999998       -0.0000000002
  Total charge density on r-space grids:        1.9999999993
  Total charge density g-space grids:           1.9999999993

  Overlap energy of the core charge distribution:               0.00001405044937
  Self energy of the core charge distribution:               -766.83425392616255
  Core Hamiltonian energy:                                    231.18341441342054
  Hartree energy:                                             308.90660731638411
  Exchange-correlation energy:                                -95.48101263736851
  Dispersion energy:                                           -0.11909073933273
  Electronic entropic energy:                                  -0.00000000000000
  Fermi energy:                                                -0.26967596698381

  Total energy:                                              -322.34432152260973

 ENERGY| Total FORCE_EVAL ( QS ) energy [hartree]           -322.344331849538321

 OPT| **************************************************************************
 OPT| Step number                                                              9
 OPT| Optimization method                                                   BFGS
 OPT| Total energy [hartree]                                     -322.3443318495
 OPT| Effective energy change [hartree]                            -0.0005898003
 OPT| Predicted energy change [hartree]                            -0.0006705537
 OPT| Scaling factor                                                0.9400567948
 OPT| Step size                                                     0.2167049987
 OPT| Trust radius                                                  0.3779452266
 OPT| Decrease in energy                                                     YES
 OPT| Used time [s]                                                       28.820
 OPT|
 OPT| Maximum step size                                             0.2167049987
 OPT| Convergence limit for maximum step size                       0.0030000000
 OPT| Maximum step size is converged                                          NO
 OPT|
 OPT| RMS step size                                                 0.0220831899
 OPT| Convergence limit for RMS step size                           0.0015000000
 OPT| RMS step size is converged                                              NO
 OPT|
 OPT| Maximum gradient                                              0.0064487506
 OPT| Convergence limit for maximum gradient                        0.0004500000
 OPT| Maximum gradient is converged                                           NO
 OPT|
 OPT| RMS gradient                                                  0.0012758435
 OPT| Convergence limit for RMS gradient                            0.0003000000
 OPT| RMS gradient is converged                                               NO
 OPT| **************************************************************************
 OPT| Estimated peak process memory after this step [MiB]                    715

 --------------------------
 OPTIMIZATION STEP:     10
 --------------------------

 *** WARNING in fm/cp_fm_elpa.F:521 :: Setting real_kernel for ELPA failed ***


 Number of electrons:                                                        218
 Number of occupied orbitals:                                                109
 Number of molecular orbitals:                                               146

 Number of orbital functions:                                                723
 Number of independent orbital functions:                                    723

 *** WARNING in fm/cp_fm_elpa.F:521 :: Setting real_kernel for ELPA failed ***


 Extrapolation method: ASPC


 SCF WAVEFUNCTION OPTIMIZATION

  Step     Update method      Time    Convergence         Total energy    Change
  ------------------------------------------------------------------------------

 *** WARNING in fm/cp_fm_elpa.F:521 :: Setting real_kernel for ELPA failed ***

     1 Broy./Diag. 0.40E+00    1.1     0.03413242      -322.3380290977 -3.22E+02

 *** WARNING in fm/cp_fm_elpa.F:521 :: Setting real_kernel for ELPA failed ***

     2 Broy./Diag. 0.40E+00    1.5     0.00271791      -322.3411004582 -3.07E-03

 *** WARNING in fm/cp_fm_elpa.F:521 :: Setting real_kernel for ELPA failed ***

     3 Broy./Diag. 0.40E+00    1.5     0.00165824      -322.3452642745 -4.16E-03

 *** WARNING in fm/cp_fm_elpa.F:521 :: Setting real_kernel for ELPA failed ***

     4 Broy./Diag. 0.40E+00    1.5     0.00076443      -322.3464786175 -1.21E-03

 *** WARNING in fm/cp_fm_elpa.F:521 :: Setting real_kernel for ELPA failed ***

     5 Broy./Diag. 0.40E+00    1.5     0.00022299      -322.3448368950  1.64E-03

 *** WARNING in fm/cp_fm_elpa.F:521 :: Setting real_kernel for ELPA failed ***

     6 Broy./Diag. 0.40E+00    1.5     0.00009447      -322.3449513543 -1.14E-04

 *** WARNING in fm/cp_fm_elpa.F:521 :: Setting real_kernel for ELPA failed ***

     7 Broy./Diag. 0.40E+00    1.6     0.00004954      -322.3451065006 -1.55E-04

 *** WARNING in fm/cp_fm_elpa.F:521 :: Setting real_kernel for ELPA failed ***

     8 Broy./Diag. 0.40E+00    1.6     0.00004036      -322.3452141773 -1.08E-04

 *** WARNING in fm/cp_fm_elpa.F:521 :: Setting real_kernel for ELPA failed ***

     9 Broy./Diag. 0.40E+00    1.6     0.00001808      -322.3450737142  1.40E-04

 *** WARNING in fm/cp_fm_elpa.F:521 :: Setting real_kernel for ELPA failed ***

    10 Broy./Diag. 0.40E+00    1.7     0.00001881      -322.3450061578  6.76E-05

 *** WARNING in fm/cp_fm_elpa.F:521 :: Setting real_kernel for ELPA failed ***

    11 Broy./Diag. 0.40E+00    1.7     0.00001257      -322.3449773063  2.89E-05

 *** WARNING in fm/cp_fm_elpa.F:521 :: Setting real_kernel for ELPA failed ***

    12 Broy./Diag. 0.40E+00    1.7     0.00000837      -322.3449845395 -7.23E-06

 *** WARNING in fm/cp_fm_elpa.F:521 :: Setting real_kernel for ELPA failed ***

    13 Broy./Diag. 0.40E+00    1.7     0.00000442      -322.3449539909  3.05E-05

 *** WARNING in fm/cp_fm_elpa.F:521 :: Setting real_kernel for ELPA failed ***

    14 Broy./Diag. 0.40E+00    1.7     0.00000295      -322.3449567125 -2.72E-06

 *** WARNING in fm/cp_fm_elpa.F:521 :: Setting real_kernel for ELPA failed ***

    15 Broy./Diag. 0.40E+00    1.7     0.00000158      -322.3449557582  9.54E-07

 *** WARNING in fm/cp_fm_elpa.F:521 :: Setting real_kernel for ELPA failed ***

    16 Broy./Diag. 0.40E+00    1.7     0.00000110      -322.3449624008 -6.64E-06

 *** WARNING in fm/cp_fm_elpa.F:521 :: Setting real_kernel for ELPA failed ***

    17 Broy./Diag. 0.40E+00    1.7     0.00000070      -322.3449582595  4.14E-06

  *** SCF run converged in    17 steps ***


  Electronic density on regular grids:       -217.9999999991        0.0000000009
  Core density on regular grids:              219.9999999998       -0.0000000002
  Total charge density on r-space grids:        2.0000000008
  Total charge density g-space grids:           2.0000000008

  Overlap energy of the core charge distribution:               0.00001412263529
  Self energy of the core charge distribution:               -766.83425392616255
  Core Hamiltonian energy:                                    231.20562014318693
  Hartree energy:                                             308.89004280446363
  Exchange-correlation energy:                                -95.48735214184852
  Dispersion energy:                                           -0.11902926174328
  Electronic entropic energy:                                  -0.00000000000000
  Fermi energy:                                                -0.26989943362808

  Total energy:                                              -322.34495825946846

 ENERGY| Total FORCE_EVAL ( QS ) energy [hartree]           -322.344957922516357

 OPT| **************************************************************************
 OPT| Step number                                                             10
 OPT| Optimization method                                                   BFGS
 OPT| Total energy [hartree]                                     -322.3449579225
 OPT| Effective energy change [hartree]                            -0.0006260730
 OPT| Predicted energy change [hartree]                            -0.0005627596
 OPT| Scaling factor                                                0.9400567948
 OPT| Step size                                                     0.1648293218
 OPT| Trust radius                                                  0.3779452266
 OPT| Decrease in energy                                                     YES
 OPT| Used time [s]                                                       28.822
 OPT|
 OPT| Maximum step size                                             0.1648293218
 OPT| Convergence limit for maximum step size                       0.0030000000
 OPT| Maximum step size is converged                                          NO
 OPT|
 OPT| RMS step size                                                 0.0168134338
 OPT| Convergence limit for RMS step size                           0.0015000000
 OPT| RMS step size is converged                                              NO
 OPT|
 OPT| Maximum gradient                                              0.0044251436
 OPT| Convergence limit for maximum gradient                        0.0004500000
 OPT| Maximum gradient is converged                                           NO
 OPT|
 OPT| RMS gradient                                                  0.0009370727
 OPT| Convergence limit for RMS gradient                            0.0003000000
 OPT| RMS gradient is converged                                               NO
 OPT| **************************************************************************
 OPT| Estimated peak process memory after this step [MiB]                    715

 --------------------------
 OPTIMIZATION STEP:     11
 --------------------------

 *** WARNING in fm/cp_fm_elpa.F:521 :: Setting real_kernel for ELPA failed ***


 Number of electrons:                                                        218
 Number of occupied orbitals:                                                109
 Number of molecular orbitals:                                               146

 Number of orbital functions:                                                723
 Number of independent orbital functions:                                    723

 *** WARNING in fm/cp_fm_elpa.F:521 :: Setting real_kernel for ELPA failed ***


 Extrapolation method: ASPC


 SCF WAVEFUNCTION OPTIMIZATION

  Step     Update method      Time    Convergence         Total energy    Change
  ------------------------------------------------------------------------------

 *** WARNING in fm/cp_fm_elpa.F:521 :: Setting real_kernel for ELPA failed ***

     1 Broy./Diag. 0.40E+00    1.1     0.03161668      -322.3390059969 -3.22E+02

 *** WARNING in fm/cp_fm_elpa.F:521 :: Setting real_kernel for ELPA failed ***

     2 Broy./Diag. 0.40E+00    1.5     0.00278901      -322.3238287342  1.52E-02

 *** WARNING in fm/cp_fm_elpa.F:521 :: Setting real_kernel for ELPA failed ***

     3 Broy./Diag. 0.40E+00    1.5     0.00151702      -322.3439870880 -2.02E-02

 *** WARNING in fm/cp_fm_elpa.F:521 :: Setting real_kernel for ELPA failed ***

     4 Broy./Diag. 0.40E+00    1.5     0.00055355      -322.3487925331 -4.81E-03

 *** WARNING in fm/cp_fm_elpa.F:521 :: Setting real_kernel for ELPA failed ***

     5 Broy./Diag. 0.40E+00    1.5     0.00021531      -322.3465096664  2.28E-03

 *** WARNING in fm/cp_fm_elpa.F:521 :: Setting real_kernel for ELPA failed ***

     6 Broy./Diag. 0.40E+00    1.5     0.00015005      -322.3458521334  6.58E-04

 *** WARNING in fm/cp_fm_elpa.F:521 :: Setting real_kernel for ELPA failed ***

     7 Broy./Diag. 0.40E+00    1.6     0.00007065      -322.3454377403  4.14E-04

 *** WARNING in fm/cp_fm_elpa.F:521 :: Setting real_kernel for ELPA failed ***

     8 Broy./Diag. 0.40E+00    1.6     0.00007178      -322.3454920430 -5.43E-05

 *** WARNING in fm/cp_fm_elpa.F:521 :: Setting real_kernel for ELPA failed ***

     9 Broy./Diag. 0.40E+00    1.6     0.00002551      -322.3452858291  2.06E-04

 *** WARNING in fm/cp_fm_elpa.F:521 :: Setting real_kernel for ELPA failed ***

    10 Broy./Diag. 0.40E+00    1.7     0.00001997      -322.3453148910 -2.91E-05

 *** WARNING in fm/cp_fm_elpa.F:521 :: Setting real_kernel for ELPA failed ***

    11 Broy./Diag. 0.40E+00    1.7     0.00001308      -322.3453435891 -2.87E-05

 *** WARNING in fm/cp_fm_elpa.F:521 :: Setting real_kernel for ELPA failed ***

    12 Broy./Diag. 0.40E+00    1.7     0.00000740      -322.3453851480 -4.16E-05

 *** WARNING in fm/cp_fm_elpa.F:521 :: Setting real_kernel for ELPA failed ***

    13 Broy./Diag. 0.40E+00    1.7     0.00000542      -322.3453793071  5.84E-06

 *** WARNING in fm/cp_fm_elpa.F:521 :: Setting real_kernel for ELPA failed ***

    14 Broy./Diag. 0.40E+00    1.7     0.00000290      -322.3453782690  1.04E-06

 *** WARNING in fm/cp_fm_elpa.F:521 :: Setting real_kernel for ELPA failed ***

    15 Broy./Diag. 0.40E+00    1.7     0.00000323      -322.3453858095 -7.54E-06

 *** WARNING in fm/cp_fm_elpa.F:521 :: Setting real_kernel for ELPA failed ***

    16 Broy./Diag. 0.40E+00    1.7     0.00000201      -322.3453826211  3.19E-06

 *** WARNING in fm/cp_fm_elpa.F:521 :: Setting real_kernel for ELPA failed ***

    17 Broy./Diag. 0.40E+00    1.7     0.00000135      -322.3453724000  1.02E-05

 *** WARNING in fm/cp_fm_elpa.F:521 :: Setting real_kernel for ELPA failed ***

    18 Broy./Diag. 0.40E+00    1.7     0.00000081      -322.3453683761  4.02E-06

  *** SCF run converged in    18 steps ***


  Electronic density on regular grids:       -217.9999999990        0.0000000010
  Core density on regular grids:              219.9999999998       -0.0000000002
  Total charge density on r-space grids:        2.0000000008
  Total charge density g-space grids:           2.0000000008

  Overlap energy of the core charge distribution:               0.00001410451337
  Self energy of the core charge distribution:               -766.83425392616255
  Core Hamiltonian energy:                                    231.19036000381567
  Hartree energy:                                             308.90055098879839
  Exchange-correlation energy:                                -95.48312609251397
  Dispersion energy:                                           -0.11891345452094
  Electronic entropic energy:                                  -0.00000000000000
  Fermi energy:                                                -0.26906398301732

  Total energy:                                              -322.34536837607010

 ENERGY| Total FORCE_EVAL ( QS ) energy [hartree]           -322.345362423460074

 OPT| **************************************************************************
 OPT| Step number                                                             11
 OPT| Optimization method                                                   BFGS
 OPT| Total energy [hartree]                                     -322.3453624235
 OPT| Effective energy change [hartree]                            -0.0004045009
 OPT| Predicted energy change [hartree]                            -0.0004763966
 OPT| Scaling factor                                                0.9400567948
 OPT| Step size                                                     0.1641133446
 OPT| Trust radius                                                  0.3779452266
 OPT| Decrease in energy                                                     YES
 OPT| Used time [s]                                                       30.495
 OPT|
 OPT| Maximum step size                                             0.1641133446
 OPT| Convergence limit for maximum step size                       0.0030000000
 OPT| Maximum step size is converged                                          NO
 OPT|
 OPT| RMS step size                                                 0.0181925249
 OPT| Convergence limit for RMS step size                           0.0015000000
 OPT| RMS step size is converged                                              NO
 OPT|
 OPT| Maximum gradient                                              0.0042322930
 OPT| Convergence limit for maximum gradient                        0.0004500000
 OPT| Maximum gradient is converged                                           NO
 OPT|
 OPT| RMS gradient                                                  0.0008669944
 OPT| Convergence limit for RMS gradient                            0.0003000000
 OPT| RMS gradient is converged                                               NO
 OPT| **************************************************************************
 OPT| Estimated peak process memory after this step [MiB]                    715

 --------------------------
 OPTIMIZATION STEP:     12
 --------------------------

 *** WARNING in fm/cp_fm_elpa.F:521 :: Setting real_kernel for ELPA failed ***


 Number of electrons:                                                        218
 Number of occupied orbitals:                                                109
 Number of molecular orbitals:                                               146

 Number of orbital functions:                                                723
 Number of independent orbital functions:                                    723

 *** WARNING in fm/cp_fm_elpa.F:521 :: Setting real_kernel for ELPA failed ***


 Extrapolation method: ASPC


 SCF WAVEFUNCTION OPTIMIZATION

  Step     Update method      Time    Convergence         Total energy    Change
  ------------------------------------------------------------------------------

 *** WARNING in fm/cp_fm_elpa.F:521 :: Setting real_kernel for ELPA failed ***

     1 Broy./Diag. 0.40E+00    1.1     0.02060618      -322.3419437220 -3.22E+02

 *** WARNING in fm/cp_fm_elpa.F:521 :: Setting real_kernel for ELPA failed ***

     2 Broy./Diag. 0.40E+00    1.5     0.00250501      -322.3111085473  3.08E-02

 *** WARNING in fm/cp_fm_elpa.F:521 :: Setting real_kernel for ELPA failed ***

     3 Broy./Diag. 0.40E+00    1.5     0.00124386      -322.3389252686 -2.78E-02

 *** WARNING in fm/cp_fm_elpa.F:521 :: Setting real_kernel for ELPA failed ***

     4 Broy./Diag. 0.40E+00    1.5     0.00078200      -322.3453059815 -6.38E-03

 *** WARNING in fm/cp_fm_elpa.F:521 :: Setting real_kernel for ELPA failed ***

     5 Broy./Diag. 0.40E+00    1.5     0.00021004      -322.3467178293 -1.41E-03

 *** WARNING in fm/cp_fm_elpa.F:521 :: Setting real_kernel for ELPA failed ***

     6 Broy./Diag. 0.40E+00    1.5     0.00006602      -322.3455491048  1.17E-03

 *** WARNING in fm/cp_fm_elpa.F:521 :: Setting real_kernel for ELPA failed ***

     7 Broy./Diag. 0.40E+00    1.6     0.00001678      -322.3454534987  9.56E-05

 *** WARNING in fm/cp_fm_elpa.F:521 :: Setting real_kernel for ELPA failed ***

     8 Broy./Diag. 0.40E+00    1.6     0.00002109      -322.3455103752 -5.69E-05

 *** WARNING in fm/cp_fm_elpa.F:521 :: Setting real_kernel for ELPA failed ***

     9 Broy./Diag. 0.40E+00    1.6     0.00001061      -322.3456143340 -1.04E-04

 *** WARNING in fm/cp_fm_elpa.F:521 :: Setting real_kernel for ELPA failed ***

    10 Broy./Diag. 0.40E+00    1.7     0.00000781      -322.3456032452  1.11E-05

 *** WARNING in fm/cp_fm_elpa.F:521 :: Setting real_kernel for ELPA failed ***

    11 Broy./Diag. 0.40E+00    1.7     0.00000290      -322.3456346269 -3.14E-05

 *** WARNING in fm/cp_fm_elpa.F:521 :: Setting real_kernel for ELPA failed ***

    12 Broy./Diag. 0.40E+00    1.7     0.00000239      -322.3456407541 -6.13E-06

 *** WARNING in fm/cp_fm_elpa.F:521 :: Setting real_kernel for ELPA failed ***

    13 Broy./Diag. 0.40E+00    1.7     0.00000247      -322.3456422326 -1.48E-06

 *** WARNING in fm/cp_fm_elpa.F:521 :: Setting real_kernel for ELPA failed ***

    14 Broy./Diag. 0.40E+00    1.7     0.00000157      -322.3456359997  6.23E-06

 *** WARNING in fm/cp_fm_elpa.F:521 :: Setting real_kernel for ELPA failed ***

    15 Broy./Diag. 0.40E+00    1.7     0.00000129      -322.3456339519  2.05E-06

 *** WARNING in fm/cp_fm_elpa.F:521 :: Setting real_kernel for ELPA failed ***

    16 Broy./Diag. 0.40E+00    1.7     0.00000084      -322.3456345787 -6.27E-07

  *** SCF run converged in    16 steps ***


  Electronic density on regular grids:       -217.9999999988        0.0000000012
  Core density on regular grids:              219.9999999998       -0.0000000002
  Total charge density on r-space grids:        2.0000000010
  Total charge density g-space grids:           2.0000000010

  Overlap energy of the core charge distribution:               0.00001414188809
  Self energy of the core charge distribution:               -766.83425392616255
  Core Hamiltonian energy:                                    231.18354775786557
  Hartree energy:                                             308.90586020055480
  Exchange-correlation energy:                                -95.48191969855810
  Dispersion energy:                                           -0.11888305430450
  Electronic entropic energy:                                  -0.00000000000000
  Fermi energy:                                                -0.26874157889539

  Total energy:                                              -322.34563457871673

 ENERGY| Total FORCE_EVAL ( QS ) energy [hartree]           -322.345630276396548

 OPT| **************************************************************************
 OPT| Step number                                                             12
 OPT| Optimization method                                                   BFGS
 OPT| Total energy [hartree]                                     -322.3456302764
 OPT| Effective energy change [hartree]                            -0.0002678529
 OPT| Predicted energy change [hartree]                            -0.0002748677
 OPT| Scaling factor                                                0.9400567948
 OPT| Step size                                                     0.0393995129
 OPT| Trust radius                                                  0.3779452266
 OPT| Decrease in energy                                                     YES
 OPT| Used time [s]                                                       27.146
 OPT|
 OPT| Maximum step size                                             0.0393995129
 OPT| Convergence limit for maximum step size                       0.0030000000
 OPT| Maximum step size is converged                                          NO
 OPT|
 OPT| RMS step size                                                 0.0057961015
 OPT| Convergence limit for RMS step size                           0.0015000000
 OPT| RMS step size is converged                                              NO
 OPT|
 OPT| Maximum gradient                                              0.0024184700
 OPT| Convergence limit for maximum gradient                        0.0004500000
 OPT| Maximum gradient is converged                                           NO
 OPT|
 OPT| RMS gradient                                                  0.0006121111
 OPT| Convergence limit for RMS gradient                            0.0003000000
 OPT| RMS gradient is converged                                               NO
 OPT| **************************************************************************
 OPT| Estimated peak process memory after this step [MiB]                    715

 --------------------------
 OPTIMIZATION STEP:     13
 --------------------------

 *** WARNING in fm/cp_fm_elpa.F:521 :: Setting real_kernel for ELPA failed ***


 Number of electrons:                                                        218
 Number of occupied orbitals:                                                109
 Number of molecular orbitals:                                               146

 Number of orbital functions:                                                723
 Number of independent orbital functions:                                    723

 *** WARNING in fm/cp_fm_elpa.F:521 :: Setting real_kernel for ELPA failed ***


 Extrapolation method: ASPC


 SCF WAVEFUNCTION OPTIMIZATION

  Step     Update method      Time    Convergence         Total energy    Change
  ------------------------------------------------------------------------------

 *** WARNING in fm/cp_fm_elpa.F:521 :: Setting real_kernel for ELPA failed ***

     1 Broy./Diag. 0.40E+00    1.1     0.02829425      -322.3434584239 -3.22E+02

 *** WARNING in fm/cp_fm_elpa.F:521 :: Setting real_kernel for ELPA failed ***

     2 Broy./Diag. 0.40E+00    1.5     0.00582279      -322.3372552199  6.20E-03

 *** WARNING in fm/cp_fm_elpa.F:521 :: Setting real_kernel for ELPA failed ***

     3 Broy./Diag. 0.40E+00    1.5     0.00199802      -322.3460644991 -8.81E-03

 *** WARNING in fm/cp_fm_elpa.F:521 :: Setting real_kernel for ELPA failed ***

     4 Broy./Diag. 0.40E+00    1.5     0.00072585      -322.3464534833 -3.89E-04

 *** WARNING in fm/cp_fm_elpa.F:521 :: Setting real_kernel for ELPA failed ***

     5 Broy./Diag. 0.40E+00    1.5     0.00020104      -322.3471153429 -6.62E-04

 *** WARNING in fm/cp_fm_elpa.F:521 :: Setting real_kernel for ELPA failed ***

     6 Broy./Diag. 0.40E+00    1.5     0.00004265      -322.3460256541  1.09E-03

 *** WARNING in fm/cp_fm_elpa.F:521 :: Setting real_kernel for ELPA failed ***

     7 Broy./Diag. 0.40E+00    1.6     0.00002881      -322.3459641776  6.15E-05

 *** WARNING in fm/cp_fm_elpa.F:521 :: Setting real_kernel for ELPA failed ***

     8 Broy./Diag. 0.40E+00    1.6     0.00002327      -322.3460225223 -5.83E-05

 *** WARNING in fm/cp_fm_elpa.F:521 :: Setting real_kernel for ELPA failed ***

     9 Broy./Diag. 0.40E+00    1.6     0.00001536      -322.3460362042 -1.37E-05

 *** WARNING in fm/cp_fm_elpa.F:521 :: Setting real_kernel for ELPA failed ***

    10 Broy./Diag. 0.40E+00    1.7     0.00001180      -322.3458672272  1.69E-04

 *** WARNING in fm/cp_fm_elpa.F:521 :: Setting real_kernel for ELPA failed ***

    11 Broy./Diag. 0.40E+00    1.7     0.00000724      -322.3458098999  5.73E-05

 *** WARNING in fm/cp_fm_elpa.F:521 :: Setting real_kernel for ELPA failed ***

    12 Broy./Diag. 0.40E+00    1.7     0.00000398      -322.3458251752 -1.53E-05

 *** WARNING in fm/cp_fm_elpa.F:521 :: Setting real_kernel for ELPA failed ***

    13 Broy./Diag. 0.40E+00    1.7     0.00000289      -322.3458453646 -2.02E-05

 *** WARNING in fm/cp_fm_elpa.F:521 :: Setting real_kernel for ELPA failed ***

    14 Broy./Diag. 0.40E+00    1.7     0.00000150      -322.3458362972  9.07E-06

 *** WARNING in fm/cp_fm_elpa.F:521 :: Setting real_kernel for ELPA failed ***

    15 Broy./Diag. 0.40E+00    1.7     0.00000104      -322.3458282546  8.04E-06

 *** WARNING in fm/cp_fm_elpa.F:521 :: Setting real_kernel for ELPA failed ***

    16 Broy./Diag. 0.40E+00    1.7     0.00000048      -322.3458283653 -1.11E-07

  *** SCF run converged in    16 steps ***


  Electronic density on regular grids:       -217.9999999988        0.0000000012
  Core density on regular grids:              219.9999999998       -0.0000000002
  Total charge density on r-space grids:        2.0000000010
  Total charge density g-space grids:           2.0000000010

  Overlap energy of the core charge distribution:               0.00001414159418
  Self energy of the core charge distribution:               -766.83425392616255
  Core Hamiltonian energy:                                    231.19262982971986
  Hartree energy:                                             308.89888236156798
  Exchange-correlation energy:                                -95.48424713210176
  Dispersion energy:                                           -0.11885363990864
  Electronic entropic energy:                                  -0.00000000000000
  Fermi energy:                                                -0.26856132741064

  Total energy:                                              -322.34582836529091

 ENERGY| Total FORCE_EVAL ( QS ) energy [hartree]           -322.345827680819525

 OPT| **************************************************************************
 OPT| Step number                                                             13
 OPT| Optimization method                                                   BFGS
 OPT| Total energy [hartree]                                     -322.3458276808
 OPT| Effective energy change [hartree]                            -0.0001974044
 OPT| Predicted energy change [hartree]                            -0.0001582298
 OPT| Scaling factor                                                0.9400567948
 OPT| Step size                                                     0.0556707406
 OPT| Trust radius                                                  0.3779452266
 OPT| Decrease in energy                                                     YES
 OPT| Used time [s]                                                       27.195
 OPT|
 OPT| Maximum step size                                             0.0556707406
 OPT| Convergence limit for maximum step size                       0.0030000000
 OPT| Maximum step size is converged                                          NO
 OPT|
 OPT| RMS step size                                                 0.0065649936
 OPT| Convergence limit for RMS step size                           0.0015000000
 OPT| RMS step size is converged                                              NO
 OPT|
 OPT| Maximum gradient                                              0.0023580546
 OPT| Convergence limit for maximum gradient                        0.0004500000
 OPT| Maximum gradient is converged                                           NO
 OPT|
 OPT| RMS gradient                                                  0.0004702972
 OPT| Convergence limit for RMS gradient                            0.0003000000
 OPT| RMS gradient is converged                                               NO
 OPT| **************************************************************************
 OPT| Estimated peak process memory after this step [MiB]                    715

 --------------------------
 OPTIMIZATION STEP:     14
 --------------------------

 *** WARNING in fm/cp_fm_elpa.F:521 :: Setting real_kernel for ELPA failed ***


 Number of electrons:                                                        218
 Number of occupied orbitals:                                                109
 Number of molecular orbitals:                                               146

 Number of orbital functions:                                                723
 Number of independent orbital functions:                                    723

 *** WARNING in fm/cp_fm_elpa.F:521 :: Setting real_kernel for ELPA failed ***


 Extrapolation method: ASPC


 SCF WAVEFUNCTION OPTIMIZATION

  Step     Update method      Time    Convergence         Total energy    Change
  ------------------------------------------------------------------------------

 *** WARNING in fm/cp_fm_elpa.F:521 :: Setting real_kernel for ELPA failed ***

     1 Broy./Diag. 0.40E+00    1.1     0.03409871      -322.3439847213 -3.22E+02

 *** WARNING in fm/cp_fm_elpa.F:521 :: Setting real_kernel for ELPA failed ***

     2 Broy./Diag. 0.40E+00    1.5     0.00968585      -322.3575430282 -1.36E-02

 *** WARNING in fm/cp_fm_elpa.F:521 :: Setting real_kernel for ELPA failed ***

     3 Broy./Diag. 0.40E+00    1.5     0.00285469      -322.3460189411  1.15E-02

 *** WARNING in fm/cp_fm_elpa.F:521 :: Setting real_kernel for ELPA failed ***

     4 Broy./Diag. 0.40E+00    1.5     0.00089272      -322.3478095500 -1.79E-03

 *** WARNING in fm/cp_fm_elpa.F:521 :: Setting real_kernel for ELPA failed ***

     5 Broy./Diag. 0.40E+00    1.5     0.00015226      -322.3459186863  1.89E-03

 *** WARNING in fm/cp_fm_elpa.F:521 :: Setting real_kernel for ELPA failed ***

     6 Broy./Diag. 0.40E+00    1.5     0.00003858      -322.3463756518 -4.57E-04

 *** WARNING in fm/cp_fm_elpa.F:521 :: Setting real_kernel for ELPA failed ***

     7 Broy./Diag. 0.40E+00    1.6     0.00002750      -322.3463801149 -4.46E-06

 *** WARNING in fm/cp_fm_elpa.F:521 :: Setting real_kernel for ELPA failed ***

     8 Broy./Diag. 0.40E+00    1.6     0.00002707      -322.3463889957 -8.88E-06

 *** WARNING in fm/cp_fm_elpa.F:521 :: Setting real_kernel for ELPA failed ***

     9 Broy./Diag. 0.40E+00    1.6     0.00001826      -322.3462041439  1.85E-04

 *** WARNING in fm/cp_fm_elpa.F:521 :: Setting real_kernel for ELPA failed ***

    10 Broy./Diag. 0.40E+00    1.7     0.00001430      -322.3461386099  6.55E-05

 *** WARNING in fm/cp_fm_elpa.F:521 :: Setting real_kernel for ELPA failed ***

    11 Broy./Diag. 0.40E+00    1.7     0.00001142      -322.3460977576  4.09E-05

 *** WARNING in fm/cp_fm_elpa.F:521 :: Setting real_kernel for ELPA failed ***

    12 Broy./Diag. 0.40E+00    1.7     0.00000619      -322.3460738293  2.39E-05

 *** WARNING in fm/cp_fm_elpa.F:521 :: Setting real_kernel for ELPA failed ***

    13 Broy./Diag. 0.40E+00    1.7     0.00000237      -322.3460533020  2.05E-05

 *** WARNING in fm/cp_fm_elpa.F:521 :: Setting real_kernel for ELPA failed ***

    14 Broy./Diag. 0.40E+00    1.7     0.00000154      -322.3460524306  8.71E-07

 *** WARNING in fm/cp_fm_elpa.F:521 :: Setting real_kernel for ELPA failed ***

    15 Broy./Diag. 0.40E+00    1.7     0.00000092      -322.3460637076 -1.13E-05

  *** SCF run converged in    15 steps ***


  Electronic density on regular grids:       -217.9999999988        0.0000000012
  Core density on regular grids:              219.9999999998       -0.0000000002
  Total charge density on r-space grids:        2.0000000010
  Total charge density g-space grids:           2.0000000010

  Overlap energy of the core charge distribution:               0.00001413246327
  Self energy of the core charge distribution:               -766.83425392616255
  Core Hamiltonian energy:                                    231.19171741348910
  Hartree energy:                                             308.89934372096729
  Exchange-correlation energy:                                -95.48410076269518
  Dispersion energy:                                           -0.11878428563396
  Electronic entropic energy:                                  -0.00000000000000
  Fermi energy:                                                -0.26870619792095

  Total energy:                                              -322.34606370757200

 ENERGY| Total FORCE_EVAL ( QS ) energy [hartree]           -322.346065376185777

 OPT| **************************************************************************
 OPT| Step number                                                             14
 OPT| Optimization method                                                   BFGS
 OPT| Total energy [hartree]                                     -322.3460653762
 OPT| Effective energy change [hartree]                            -0.0002376954
 OPT| Predicted energy change [hartree]                            -0.0001882563
 OPT| Scaling factor                                                0.9400567948
 OPT| Step size                                                     0.1370346254
 OPT| Trust radius                                                  0.3779452266
 OPT| Decrease in energy                                                     YES
 OPT| Used time [s]                                                       25.481
 OPT|
 OPT| Maximum step size                                             0.1370346254
 OPT| Convergence limit for maximum step size                       0.0030000000
 OPT| Maximum step size is converged                                          NO
 OPT|
 OPT| RMS step size                                                 0.0146941832
 OPT| Convergence limit for RMS step size                           0.0015000000
 OPT| RMS step size is converged                                              NO
 OPT|
 OPT| Maximum gradient                                              0.0017821512
 OPT| Convergence limit for maximum gradient                        0.0004500000
 OPT| Maximum gradient is converged                                           NO
 OPT|
 OPT| RMS gradient                                                  0.0004912247
 OPT| Convergence limit for RMS gradient                            0.0003000000
 OPT| RMS gradient is converged                                               NO
 OPT| **************************************************************************
 OPT| Estimated peak process memory after this step [MiB]                    715

 --------------------------
 OPTIMIZATION STEP:     15
 --------------------------

 *** WARNING in fm/cp_fm_elpa.F:521 :: Setting real_kernel for ELPA failed ***


 Number of electrons:                                                        218
 Number of occupied orbitals:                                                109
 Number of molecular orbitals:                                               146

 Number of orbital functions:                                                723
 Number of independent orbital functions:                                    723

 *** WARNING in fm/cp_fm_elpa.F:521 :: Setting real_kernel for ELPA failed ***


 Extrapolation method: ASPC


 SCF WAVEFUNCTION OPTIMIZATION

  Step     Update method      Time    Convergence         Total energy    Change
  ------------------------------------------------------------------------------

 *** WARNING in fm/cp_fm_elpa.F:521 :: Setting real_kernel for ELPA failed ***

     1 Broy./Diag. 0.40E+00    1.1     0.02020028      -322.3444014259 -3.22E+02

 *** WARNING in fm/cp_fm_elpa.F:521 :: Setting real_kernel for ELPA failed ***

     2 Broy./Diag. 0.40E+00    1.5     0.00494530      -322.3205069083  2.39E-02

 *** WARNING in fm/cp_fm_elpa.F:521 :: Setting real_kernel for ELPA failed ***

     3 Broy./Diag. 0.40E+00    1.5     0.00186931      -322.3438535534 -2.33E-02

 *** WARNING in fm/cp_fm_elpa.F:521 :: Setting real_kernel for ELPA failed ***

     4 Broy./Diag. 0.40E+00    1.5     0.00102430      -322.3471713922 -3.32E-03

 *** WARNING in fm/cp_fm_elpa.F:521 :: Setting real_kernel for ELPA failed ***

     5 Broy./Diag. 0.40E+00    1.5     0.00022370      -322.3479426996 -7.71E-04

 *** WARNING in fm/cp_fm_elpa.F:521 :: Setting real_kernel for ELPA failed ***

     6 Broy./Diag. 0.40E+00    1.6     0.00002972      -322.3467267066  1.22E-03

 *** WARNING in fm/cp_fm_elpa.F:521 :: Setting real_kernel for ELPA failed ***

     7 Broy./Diag. 0.40E+00    1.7     0.00002425      -322.3466005650  1.26E-04

 *** WARNING in fm/cp_fm_elpa.F:521 :: Setting real_kernel for ELPA failed ***

     8 Broy./Diag. 0.40E+00    1.7     0.00002674      -322.3465824452  1.81E-05

 *** WARNING in fm/cp_fm_elpa.F:521 :: Setting real_kernel for ELPA failed ***

     9 Broy./Diag. 0.40E+00    1.7     0.00001578      -322.3465090138  7.34E-05

 *** WARNING in fm/cp_fm_elpa.F:521 :: Setting real_kernel for ELPA failed ***

    10 Broy./Diag. 0.40E+00    1.8     0.00000933      -322.3463522508  1.57E-04

 *** WARNING in fm/cp_fm_elpa.F:521 :: Setting real_kernel for ELPA failed ***

    11 Broy./Diag. 0.40E+00    1.8     0.00000594      -322.3462962295  5.60E-05

 *** WARNING in fm/cp_fm_elpa.F:521 :: Setting real_kernel for ELPA failed ***

    12 Broy./Diag. 0.40E+00    1.8     0.00000389      -322.3462806031  1.56E-05

 *** WARNING in fm/cp_fm_elpa.F:521 :: Setting real_kernel for ELPA failed ***

    13 Broy./Diag. 0.40E+00    1.8     0.00000208      -322.3462780507  2.55E-06

 *** WARNING in fm/cp_fm_elpa.F:521 :: Setting real_kernel for ELPA failed ***

    14 Broy./Diag. 0.40E+00    1.8     0.00000146      -322.3462620864  1.60E-05

 *** WARNING in fm/cp_fm_elpa.F:521 :: Setting real_kernel for ELPA failed ***

    15 Broy./Diag. 0.40E+00    1.8     0.00000105      -322.3462616675  4.19E-07

 *** WARNING in fm/cp_fm_elpa.F:521 :: Setting real_kernel for ELPA failed ***

    16 Broy./Diag. 0.40E+00    1.8     0.00000085      -322.3462633002 -1.63E-06

  *** SCF run converged in    16 steps ***


  Electronic density on regular grids:       -217.9999999988        0.0000000012
  Core density on regular grids:              219.9999999998       -0.0000000002
  Total charge density on r-space grids:        2.0000000010
  Total charge density g-space grids:           2.0000000010

  Overlap energy of the core charge distribution:               0.00001412276565
  Self energy of the core charge distribution:               -766.83425392616255
  Core Hamiltonian energy:                                    231.19774760029486
  Hartree energy:                                             308.89441506477408
  Exchange-correlation energy:                                -95.48549247146312
  Dispersion energy:                                           -0.11869369044071
  Electronic entropic energy:                                  -0.00000000000000
  Fermi energy:                                                -0.26856308910022

  Total energy:                                              -322.34626330023178

 ENERGY| Total FORCE_EVAL ( QS ) energy [hartree]           -322.346263124365066

 OPT| **************************************************************************
 OPT| Step number                                                             15
 OPT| Optimization method                                                   BFGS
 OPT| Total energy [hartree]                                     -322.3462631244
 OPT| Effective energy change [hartree]                            -0.0001977482
 OPT| Predicted energy change [hartree]                            -0.0001840376
 OPT| Scaling factor                                                0.9400567948
 OPT| Step size                                                     0.1444101004
 OPT| Trust radius                                                  0.3779452266
 OPT| Decrease in energy                                                     YES
 OPT| Used time [s]                                                       28.281
 OPT|
 OPT| Maximum step size                                             0.1444101004
 OPT| Convergence limit for maximum step size                       0.0030000000
 OPT| Maximum step size is converged                                          NO
 OPT|
 OPT| RMS step size                                                 0.0167399875
 OPT| Convergence limit for RMS step size                           0.0015000000
 OPT| RMS step size is converged                                              NO
 OPT|
 OPT| Maximum gradient                                              0.0017323793
 OPT| Convergence limit for maximum gradient                        0.0004500000
 OPT| Maximum gradient is converged                                           NO
 OPT|
 OPT| RMS gradient                                                  0.0004988824
 OPT| Convergence limit for RMS gradient                            0.0003000000
 OPT| RMS gradient is converged                                               NO
 OPT| **************************************************************************
 OPT| Estimated peak process memory after this step [MiB]                    715

 --------------------------
 OPTIMIZATION STEP:     16
 --------------------------

 *** WARNING in fm/cp_fm_elpa.F:521 :: Setting real_kernel for ELPA failed ***


 Number of electrons:                                                        218
 Number of occupied orbitals:                                                109
 Number of molecular orbitals:                                               146

 Number of orbital functions:                                                723
 Number of independent orbital functions:                                    723

 *** WARNING in fm/cp_fm_elpa.F:521 :: Setting real_kernel for ELPA failed ***


 Extrapolation method: ASPC


 SCF WAVEFUNCTION OPTIMIZATION

  Step     Update method      Time    Convergence         Total energy    Change
  ------------------------------------------------------------------------------

 *** WARNING in fm/cp_fm_elpa.F:521 :: Setting real_kernel for ELPA failed ***

     1 Broy./Diag. 0.40E+00    1.2     0.02119761      -322.3449860260 -3.22E+02

 *** WARNING in fm/cp_fm_elpa.F:521 :: Setting real_kernel for ELPA failed ***

     2 Broy./Diag. 0.40E+00    1.6     0.00285216      -322.3410309600  3.96E-03

 *** WARNING in fm/cp_fm_elpa.F:521 :: Setting real_kernel for ELPA failed ***

     3 Broy./Diag. 0.40E+00    1.7     0.00112245      -322.3445398343 -3.51E-03

 *** WARNING in fm/cp_fm_elpa.F:521 :: Setting real_kernel for ELPA failed ***

     4 Broy./Diag. 0.40E+00    1.7     0.00058406      -322.3484167511 -3.88E-03

 *** WARNING in fm/cp_fm_elpa.F:521 :: Setting real_kernel for ELPA failed ***

     5 Broy./Diag. 0.40E+00    1.7     0.00015850      -322.3469888095  1.43E-03

 *** WARNING in fm/cp_fm_elpa.F:521 :: Setting real_kernel for ELPA failed ***

     6 Broy./Diag. 0.40E+00    1.7     0.00003814      -322.3467733701  2.15E-04

 *** WARNING in fm/cp_fm_elpa.F:521 :: Setting real_kernel for ELPA failed ***

     7 Broy./Diag. 0.40E+00    1.7     0.00002126      -322.3465079822  2.65E-04

 *** WARNING in fm/cp_fm_elpa.F:521 :: Setting real_kernel for ELPA failed ***

     8 Broy./Diag. 0.40E+00    1.8     0.00002909      -322.3464984781  9.50E-06

 *** WARNING in fm/cp_fm_elpa.F:521 :: Setting real_kernel for ELPA failed ***

     9 Broy./Diag. 0.40E+00    1.8     0.00001317      -322.3464431647  5.53E-05

 *** WARNING in fm/cp_fm_elpa.F:521 :: Setting real_kernel for ELPA failed ***

    10 Broy./Diag. 0.40E+00    1.8     0.00001125      -322.3464100000  3.32E-05

 *** WARNING in fm/cp_fm_elpa.F:521 :: Setting real_kernel for ELPA failed ***

    11 Broy./Diag. 0.40E+00    1.8     0.00000633      -322.3463849249  2.51E-05

 *** WARNING in fm/cp_fm_elpa.F:521 :: Setting real_kernel for ELPA failed ***

    12 Broy./Diag. 0.40E+00    1.8     0.00000303      -322.3464078773 -2.30E-05

 *** WARNING in fm/cp_fm_elpa.F:521 :: Setting real_kernel for ELPA failed ***

    13 Broy./Diag. 0.40E+00    1.8     0.00000200      -322.3464171602 -9.28E-06

 *** WARNING in fm/cp_fm_elpa.F:521 :: Setting real_kernel for ELPA failed ***

    14 Broy./Diag. 0.40E+00    1.8     0.00000251      -322.3464103553  6.80E-06

 *** WARNING in fm/cp_fm_elpa.F:521 :: Setting real_kernel for ELPA failed ***

    15 Broy./Diag. 0.40E+00    1.8     0.00000154      -322.3464095371  8.18E-07

 *** WARNING in fm/cp_fm_elpa.F:521 :: Setting real_kernel for ELPA failed ***

    16 Broy./Diag. 0.40E+00    1.9     0.00000080      -322.3464126457 -3.11E-06

  *** SCF run converged in    16 steps ***


  Electronic density on regular grids:       -217.9999999988        0.0000000012
  Core density on regular grids:              219.9999999998       -0.0000000002
  Total charge density on r-space grids:        2.0000000010
  Total charge density g-space grids:           2.0000000010

  Overlap energy of the core charge distribution:               0.00001411026825
  Self energy of the core charge distribution:               -766.83425392616255
  Core Hamiltonian energy:                                    231.19492876055804
  Hartree energy:                                             308.89617749154684
  Exchange-correlation energy:                                -95.48467392539058
  Dispersion energy:                                           -0.11860515653599
  Electronic entropic energy:                                  -0.00000000000000
  Fermi energy:                                                -0.26837257890875

  Total energy:                                              -322.34641264571599

 ENERGY| Total FORCE_EVAL ( QS ) energy [hartree]           -322.346405272693517

 OPT| **************************************************************************
 OPT| Step number                                                             16
 OPT| Optimization method                                                   BFGS
 OPT| Total energy [hartree]                                     -322.3464052727
 OPT| Effective energy change [hartree]                            -0.0001421483
 OPT| Predicted energy change [hartree]                            -0.0001275093
 OPT| Scaling factor                                                0.9400567948
 OPT| Step size                                                     0.1070798727
 OPT| Trust radius                                                  0.3779452266
 OPT| Decrease in energy                                                     YES
 OPT| Used time [s]                                                       30.015
 OPT|
 OPT| Maximum step size                                             0.1070798727
 OPT| Convergence limit for maximum step size                       0.0030000000
 OPT| Maximum step size is converged                                          NO
 OPT|
 OPT| RMS step size                                                 0.0127164073
 OPT| Convergence limit for RMS step size                           0.0015000000
 OPT| RMS step size is converged                                              NO
 OPT|
 OPT| Maximum gradient                                              0.0014158211
 OPT| Convergence limit for maximum gradient                        0.0004500000
 OPT| Maximum gradient is converged                                           NO
 OPT|
 OPT| RMS gradient                                                  0.0004054530
 OPT| Convergence limit for RMS gradient                            0.0003000000
 OPT| RMS gradient is converged                                               NO
 OPT| **************************************************************************
 OPT| Estimated peak process memory after this step [MiB]                    715

 --------------------------
 OPTIMIZATION STEP:     17
 --------------------------

 *** WARNING in fm/cp_fm_elpa.F:521 :: Setting real_kernel for ELPA failed ***


 Number of electrons:                                                        218
 Number of occupied orbitals:                                                109
 Number of molecular orbitals:                                               146

 Number of orbital functions:                                                723
 Number of independent orbital functions:                                    723

 *** WARNING in fm/cp_fm_elpa.F:521 :: Setting real_kernel for ELPA failed ***


 Extrapolation method: ASPC


 SCF WAVEFUNCTION OPTIMIZATION

  Step     Update method      Time    Convergence         Total energy    Change
  ------------------------------------------------------------------------------

 *** WARNING in fm/cp_fm_elpa.F:521 :: Setting real_kernel for ELPA failed ***

     1 Broy./Diag. 0.40E+00    1.2     0.00971799      -322.3456580125 -3.22E+02

 *** WARNING in fm/cp_fm_elpa.F:521 :: Setting real_kernel for ELPA failed ***

     2 Broy./Diag. 0.40E+00    1.6     0.00318790      -322.3256624960  2.00E-02

 *** WARNING in fm/cp_fm_elpa.F:521 :: Setting real_kernel for ELPA failed ***

     3 Broy./Diag. 0.40E+00    1.6     0.00092257      -322.3431127566 -1.75E-02

 *** WARNING in fm/cp_fm_elpa.F:521 :: Setting real_kernel for ELPA failed ***

     4 Broy./Diag. 0.40E+00    1.7     0.00051175      -322.3460795317 -2.97E-03

 *** WARNING in fm/cp_fm_elpa.F:521 :: Setting real_kernel for ELPA failed ***

     5 Broy./Diag. 0.40E+00    1.7     0.00015458      -322.3474643644 -1.38E-03

 *** WARNING in fm/cp_fm_elpa.F:521 :: Setting real_kernel for ELPA failed ***

     6 Broy./Diag. 0.40E+00    1.7     0.00002467      -322.3467159524  7.48E-04

 *** WARNING in fm/cp_fm_elpa.F:521 :: Setting real_kernel for ELPA failed ***

     7 Broy./Diag. 0.40E+00    1.7     0.00000849      -322.3465834994  1.32E-04

 *** WARNING in fm/cp_fm_elpa.F:521 :: Setting real_kernel for ELPA failed ***

     8 Broy./Diag. 0.40E+00    1.8     0.00000652      -322.3465800903  3.41E-06

 *** WARNING in fm/cp_fm_elpa.F:521 :: Setting real_kernel for ELPA failed ***

     9 Broy./Diag. 0.40E+00    1.8     0.00000432      -322.3466005947 -2.05E-05

 *** WARNING in fm/cp_fm_elpa.F:521 :: Setting real_kernel for ELPA failed ***

    10 Broy./Diag. 0.40E+00    1.8     0.00000289      -322.3465688155  3.18E-05

 *** WARNING in fm/cp_fm_elpa.F:521 :: Setting real_kernel for ELPA failed ***

    11 Broy./Diag. 0.40E+00    1.8     0.00000155      -322.3465514759  1.73E-05

 *** WARNING in fm/cp_fm_elpa.F:521 :: Setting real_kernel for ELPA failed ***

    12 Broy./Diag. 0.40E+00    1.8     0.00000108      -322.3465481087  3.37E-06

 *** WARNING in fm/cp_fm_elpa.F:521 :: Setting real_kernel for ELPA failed ***

    13 Broy./Diag. 0.40E+00    1.9     0.00000063      -322.3465464434  1.67E-06

  *** SCF run converged in    13 steps ***


  Electronic density on regular grids:       -217.9999999989        0.0000000011
  Core density on regular grids:              219.9999999998       -0.0000000002
  Total charge density on r-space grids:        2.0000000009
  Total charge density g-space grids:           2.0000000009

  Overlap energy of the core charge distribution:               0.00001416389359
  Self energy of the core charge distribution:               -766.83425392616255
  Core Hamiltonian energy:                                    231.20971529965360
  Hartree energy:                                             308.88527158156961
  Exchange-correlation energy:                                -95.48871901945542
  Dispersion energy:                                           -0.11857454288459
  Electronic entropic energy:                                  -0.00000000000000
  Fermi energy:                                                -0.26833360553402

  Total energy:                                              -322.34654644338571

 ENERGY| Total FORCE_EVAL ( QS ) energy [hartree]           -322.346535976834105

 OPT| **************************************************************************
 OPT| Step number                                                             17
 OPT| Optimization method                                                   BFGS
 OPT| Total energy [hartree]                                     -322.3465359768
 OPT| Effective energy change [hartree]                            -0.0001307041
 OPT| Predicted energy change [hartree]                            -0.0001120806
 OPT| Scaling factor                                                0.9400567948
 OPT| Step size                                                     0.0413417712
 OPT| Trust radius                                                  0.3779452266
 OPT| Decrease in energy                                                     YES
 OPT| Used time [s]                                                       24.483
 OPT|
 OPT| Maximum step size                                             0.0413417712
 OPT| Convergence limit for maximum step size                       0.0030000000
 OPT| Maximum step size is converged                                          NO
 OPT|
 OPT| RMS step size                                                 0.0076052753
 OPT| Convergence limit for RMS step size                           0.0015000000
 OPT| RMS step size is converged                                              NO
 OPT|
 OPT| Maximum gradient                                              0.0015592303
 OPT| Convergence limit for maximum gradient                        0.0004500000
 OPT| Maximum gradient is converged                                           NO
 OPT|
 OPT| RMS gradient                                                  0.0004054365
 OPT| Convergence limit for RMS gradient                            0.0003000000
 OPT| RMS gradient is converged                                               NO
 OPT| **************************************************************************
 OPT| Estimated peak process memory after this step [MiB]                    716

 --------------------------
 OPTIMIZATION STEP:     18
 --------------------------

 *** WARNING in fm/cp_fm_elpa.F:521 :: Setting real_kernel for ELPA failed ***


 Number of electrons:                                                        218
 Number of occupied orbitals:                                                109
 Number of molecular orbitals:                                               146

 Number of orbital functions:                                                723
 Number of independent orbital functions:                                    723

 *** WARNING in fm/cp_fm_elpa.F:521 :: Setting real_kernel for ELPA failed ***


 Extrapolation method: ASPC


 SCF WAVEFUNCTION OPTIMIZATION

  Step     Update method      Time    Convergence         Total energy    Change
  ------------------------------------------------------------------------------

 *** WARNING in fm/cp_fm_elpa.F:521 :: Setting real_kernel for ELPA failed ***

     1 Broy./Diag. 0.40E+00    1.2     0.03365172      -322.3445354555 -3.22E+02

 *** WARNING in fm/cp_fm_elpa.F:521 :: Setting real_kernel for ELPA failed ***

     2 Broy./Diag. 0.40E+00    1.6     0.00218668      -322.3541394401 -9.60E-03

 *** WARNING in fm/cp_fm_elpa.F:521 :: Setting real_kernel for ELPA failed ***

     3 Broy./Diag. 0.40E+00    1.6     0.00104528      -322.3492667756  4.87E-03

 *** WARNING in fm/cp_fm_elpa.F:521 :: Setting real_kernel for ELPA failed ***

     4 Broy./Diag. 0.40E+00    1.7     0.00050208      -322.3481598126  1.11E-03

 *** WARNING in fm/cp_fm_elpa.F:521 :: Setting real_kernel for ELPA failed ***

     5 Broy./Diag. 0.40E+00    1.7     0.00016164      -322.3468004797  1.36E-03

 *** WARNING in fm/cp_fm_elpa.F:521 :: Setting real_kernel for ELPA failed ***

     6 Broy./Diag. 0.40E+00    1.7     0.00005503      -322.3470211739 -2.21E-04

 *** WARNING in fm/cp_fm_elpa.F:521 :: Setting real_kernel for ELPA failed ***

     7 Broy./Diag. 0.40E+00    1.7     0.00002303      -322.3469561658  6.50E-05

 *** WARNING in fm/cp_fm_elpa.F:521 :: Setting real_kernel for ELPA failed ***

     8 Broy./Diag. 0.40E+00    1.8     0.00003987      -322.3469636527 -7.49E-06

 *** WARNING in fm/cp_fm_elpa.F:521 :: Setting real_kernel for ELPA failed ***

     9 Broy./Diag. 0.40E+00    1.8     0.00001371      -322.3468147827  1.49E-04

 *** WARNING in fm/cp_fm_elpa.F:521 :: Setting real_kernel for ELPA failed ***

    10 Broy./Diag. 0.40E+00    1.8     0.00001609      -322.3467354535  7.93E-05

 *** WARNING in fm/cp_fm_elpa.F:521 :: Setting real_kernel for ELPA failed ***

    11 Broy./Diag. 0.40E+00    1.8     0.00000994      -322.3466920273  4.34E-05

 *** WARNING in fm/cp_fm_elpa.F:521 :: Setting real_kernel for ELPA failed ***

    12 Broy./Diag. 0.40E+00    1.8     0.00000441      -322.3467112450 -1.92E-05

 *** WARNING in fm/cp_fm_elpa.F:521 :: Setting real_kernel for ELPA failed ***

    13 Broy./Diag. 0.40E+00    1.9     0.00000250      -322.3467129816 -1.74E-06

 *** WARNING in fm/cp_fm_elpa.F:521 :: Setting real_kernel for ELPA failed ***

    14 Broy./Diag. 0.40E+00    1.8     0.00000188      -322.3467067255  6.26E-06

 *** WARNING in fm/cp_fm_elpa.F:521 :: Setting real_kernel for ELPA failed ***

    15 Broy./Diag. 0.40E+00    1.8     0.00000134      -322.3467066769  4.86E-08

 *** WARNING in fm/cp_fm_elpa.F:521 :: Setting real_kernel for ELPA failed ***

    16 Broy./Diag. 0.40E+00    1.9     0.00000073      -322.3467090086 -2.33E-06

  *** SCF run converged in    16 steps ***


  Electronic density on regular grids:       -217.9999999990        0.0000000010
  Core density on regular grids:              219.9999999998       -0.0000000002
  Total charge density on r-space grids:        2.0000000009
  Total charge density g-space grids:           2.0000000009

  Overlap energy of the core charge distribution:               0.00001410563531
  Self energy of the core charge distribution:               -766.83425392616255
  Core Hamiltonian energy:                                    231.18887025403092
  Hartree energy:                                             308.89993898000023
  Exchange-correlation energy:                                -95.48281472902855
  Dispersion energy:                                           -0.11846369304681
  Electronic entropic energy:                                  -0.00000000000000
  Fermi energy:                                                -0.26853726064041

  Total energy:                                              -322.34670900857145

 ENERGY| Total FORCE_EVAL ( QS ) energy [hartree]           -322.346708124589838

 OPT| **************************************************************************
 OPT| Step number                                                             18
 OPT| Optimization method                                                   BFGS
 OPT| Total energy [hartree]                                     -322.3467081246
 OPT| Effective energy change [hartree]                            -0.0001721478
 OPT| Predicted energy change [hartree]                            -0.0001570731
 OPT| Scaling factor                                                0.9400567948
 OPT| Step size                                                     0.1309209702
 OPT| Trust radius                                                  0.3779452266
 OPT| Decrease in energy                                                     YES
 OPT| Used time [s]                                                       30.017
 OPT|
 OPT| Maximum step size                                             0.1309209702
 OPT| Convergence limit for maximum step size                       0.0030000000
 OPT| Maximum step size is converged                                          NO
 OPT|
 OPT| RMS step size                                                 0.0163095316
 OPT| Convergence limit for RMS step size                           0.0015000000
 OPT| RMS step size is converged                                              NO
 OPT|
 OPT| Maximum gradient                                              0.0043187755
 OPT| Convergence limit for maximum gradient                        0.0004500000
 OPT| Maximum gradient is converged                                           NO
 OPT|
 OPT| RMS gradient                                                  0.0006587487
 OPT| Convergence limit for RMS gradient                            0.0003000000
 OPT| RMS gradient is converged                                               NO
 OPT| **************************************************************************
 OPT| Estimated peak process memory after this step [MiB]                    716

 --------------------------
 OPTIMIZATION STEP:     19
 --------------------------

 *** WARNING in fm/cp_fm_elpa.F:521 :: Setting real_kernel for ELPA failed ***


 Number of electrons:                                                        218
 Number of occupied orbitals:                                                109
 Number of molecular orbitals:                                               146

 Number of orbital functions:                                                723
 Number of independent orbital functions:                                    723

 *** WARNING in fm/cp_fm_elpa.F:521 :: Setting real_kernel for ELPA failed ***


 Extrapolation method: ASPC


 SCF WAVEFUNCTION OPTIMIZATION

  Step     Update method      Time    Convergence         Total energy    Change
  ------------------------------------------------------------------------------

 *** WARNING in fm/cp_fm_elpa.F:521 :: Setting real_kernel for ELPA failed ***

     1 Broy./Diag. 0.40E+00    1.2     0.02614763      -322.3448303502 -3.22E+02

 *** WARNING in fm/cp_fm_elpa.F:521 :: Setting real_kernel for ELPA failed ***

     2 Broy./Diag. 0.40E+00    1.6     0.00587459      -322.3138036627  3.10E-02

 *** WARNING in fm/cp_fm_elpa.F:521 :: Setting real_kernel for ELPA failed ***

     3 Broy./Diag. 0.40E+00    1.7     0.00166491      -322.3398928875 -2.61E-02

 *** WARNING in fm/cp_fm_elpa.F:521 :: Setting real_kernel for ELPA failed ***

     4 Broy./Diag. 0.40E+00    1.7     0.00092998      -322.3446023014 -4.71E-03

 *** WARNING in fm/cp_fm_elpa.F:521 :: Setting real_kernel for ELPA failed ***

     5 Broy./Diag. 0.40E+00    1.7     0.00026093      -322.3470905106 -2.49E-03

 *** WARNING in fm/cp_fm_elpa.F:521 :: Setting real_kernel for ELPA failed ***

     6 Broy./Diag. 0.40E+00    1.7     0.00005320      -322.3464134747  6.77E-04

 *** WARNING in fm/cp_fm_elpa.F:521 :: Setting real_kernel for ELPA failed ***

     7 Broy./Diag. 0.40E+00    1.7     0.00003144      -322.3464802225 -6.67E-05

 *** WARNING in fm/cp_fm_elpa.F:521 :: Setting real_kernel for ELPA failed ***

     8 Broy./Diag. 0.40E+00    1.7     0.00003696      -322.3465965344 -1.16E-04

 *** WARNING in fm/cp_fm_elpa.F:521 :: Setting real_kernel for ELPA failed ***

     9 Broy./Diag. 0.40E+00    1.7     0.00001641      -322.3467602775 -1.64E-04

 *** WARNING in fm/cp_fm_elpa.F:521 :: Setting real_kernel for ELPA failed ***

    10 Broy./Diag. 0.40E+00    1.8     0.00001323      -322.3467922707 -3.20E-05

 *** WARNING in fm/cp_fm_elpa.F:521 :: Setting real_kernel for ELPA failed ***

    11 Broy./Diag. 0.40E+00    1.8     0.00000817      -322.3468377014 -4.54E-05

 *** WARNING in fm/cp_fm_elpa.F:521 :: Setting real_kernel for ELPA failed ***

    12 Broy./Diag. 0.40E+00    1.8     0.00000438      -322.3468485893 -1.09E-05

 *** WARNING in fm/cp_fm_elpa.F:521 :: Setting real_kernel for ELPA failed ***

    13 Broy./Diag. 0.40E+00    1.8     0.00000369      -322.3468551492 -6.56E-06

 *** WARNING in fm/cp_fm_elpa.F:521 :: Setting real_kernel for ELPA failed ***

    14 Broy./Diag. 0.40E+00    1.8     0.00000272      -322.3468550118  1.37E-07

 *** WARNING in fm/cp_fm_elpa.F:521 :: Setting real_kernel for ELPA failed ***

    15 Broy./Diag. 0.40E+00    1.8     0.00000189      -322.3468623992 -7.39E-06

 *** WARNING in fm/cp_fm_elpa.F:521 :: Setting real_kernel for ELPA failed ***

    16 Broy./Diag. 0.40E+00    1.8     0.00000086      -322.3468675935 -5.19E-06

  *** SCF run converged in    16 steps ***


  Electronic density on regular grids:       -217.9999999994        0.0000000006
  Core density on regular grids:              219.9999999998       -0.0000000002
  Total charge density on r-space grids:        2.0000000004
  Total charge density g-space grids:           2.0000000004

  Overlap energy of the core charge distribution:               0.00001415757918
  Self energy of the core charge distribution:               -766.83425392616255
  Core Hamiltonian energy:                                    231.20344654181034
  Hartree energy:                                             308.88908614361424
  Exchange-correlation energy:                                -95.48672501202823
  Dispersion energy:                                           -0.11843549828867
  Electronic entropic energy:                                  -0.00000000000000
  Fermi energy:                                                -0.26838735889635

  Total energy:                                              -322.34686759347574

 ENERGY| Total FORCE_EVAL ( QS ) energy [hartree]           -322.346869697843488

 OPT| **************************************************************************
 OPT| Step number                                                             19
 OPT| Optimization method                                                   BFGS
 OPT| Total energy [hartree]                                     -322.3468696978
 OPT| Effective energy change [hartree]                            -0.0001615733
 OPT| Predicted energy change [hartree]                            -0.0001604982
 OPT| Scaling factor                                                0.9400567948
 OPT| Step size                                                     0.0717418159
 OPT| Trust radius                                                  0.3779452266
 OPT| Decrease in energy                                                     YES
 OPT| Used time [s]                                                       29.333
 OPT|
 OPT| Maximum step size                                             0.0717418159
 OPT| Convergence limit for maximum step size                       0.0030000000
 OPT| Maximum step size is converged                                          NO
 OPT|
 OPT| RMS step size                                                 0.0118289913
 OPT| Convergence limit for RMS step size                           0.0015000000
 OPT| RMS step size is converged                                              NO
 OPT|
 OPT| Maximum gradient                                              0.0023153790
 OPT| Convergence limit for maximum gradient                        0.0004500000
 OPT| Maximum gradient is converged                                           NO
 OPT|
 OPT| RMS gradient                                                  0.0006028638
 OPT| Convergence limit for RMS gradient                            0.0003000000
 OPT| RMS gradient is converged                                               NO
 OPT| **************************************************************************
 OPT| Estimated peak process memory after this step [MiB]                    716

 --------------------------
 OPTIMIZATION STEP:     20
 --------------------------

 *** WARNING in fm/cp_fm_elpa.F:521 :: Setting real_kernel for ELPA failed ***


 Number of electrons:                                                        218
 Number of occupied orbitals:                                                109
 Number of molecular orbitals:                                               146

 Number of orbital functions:                                                723
 Number of independent orbital functions:                                    723

 *** WARNING in fm/cp_fm_elpa.F:521 :: Setting real_kernel for ELPA failed ***


 Extrapolation method: ASPC


 SCF WAVEFUNCTION OPTIMIZATION

  Step     Update method      Time    Convergence         Total energy    Change
  ------------------------------------------------------------------------------

 *** WARNING in fm/cp_fm_elpa.F:521 :: Setting real_kernel for ELPA failed ***

     1 Broy./Diag. 0.40E+00    1.1     0.03875695      -322.3441248823 -3.22E+02

 *** WARNING in fm/cp_fm_elpa.F:521 :: Setting real_kernel for ELPA failed ***

     2 Broy./Diag. 0.40E+00    1.5     0.00469405      -322.3701895003 -2.61E-02

 *** WARNING in fm/cp_fm_elpa.F:521 :: Setting real_kernel for ELPA failed ***

     3 Broy./Diag. 0.40E+00    1.6     0.00112639      -322.3529098229  1.73E-02

 *** WARNING in fm/cp_fm_elpa.F:521 :: Setting real_kernel for ELPA failed ***

     4 Broy./Diag. 0.40E+00    1.6     0.00061612      -322.3494635095  3.45E-03

 *** WARNING in fm/cp_fm_elpa.F:521 :: Setting real_kernel for ELPA failed ***

     5 Broy./Diag. 0.40E+00    1.6     0.00024514      -322.3469610690  2.50E-03

 *** WARNING in fm/cp_fm_elpa.F:521 :: Setting real_kernel for ELPA failed ***

     6 Broy./Diag. 0.40E+00    1.6     0.00005725      -322.3474385484 -4.77E-04

 *** WARNING in fm/cp_fm_elpa.F:521 :: Setting real_kernel for ELPA failed ***

     7 Broy./Diag. 0.40E+00    1.7     0.00002612      -322.3473519590  8.66E-05

 *** WARNING in fm/cp_fm_elpa.F:521 :: Setting real_kernel for ELPA failed ***

     8 Broy./Diag. 0.40E+00    1.7     0.00004264      -322.3473097219  4.22E-05

 *** WARNING in fm/cp_fm_elpa.F:521 :: Setting real_kernel for ELPA failed ***

     9 Broy./Diag. 0.40E+00    1.7     0.00001878      -322.3471558935  1.54E-04

 *** WARNING in fm/cp_fm_elpa.F:521 :: Setting real_kernel for ELPA failed ***

    10 Broy./Diag. 0.40E+00    1.8     0.00001538      -322.3470419104  1.14E-04

 *** WARNING in fm/cp_fm_elpa.F:521 :: Setting real_kernel for ELPA failed ***

    11 Broy./Diag. 0.40E+00    1.8     0.00001092      -322.3469935448  4.84E-05

 *** WARNING in fm/cp_fm_elpa.F:521 :: Setting real_kernel for ELPA failed ***

    12 Broy./Diag. 0.40E+00    1.8     0.00000422      -322.3470324157 -3.89E-05

 *** WARNING in fm/cp_fm_elpa.F:521 :: Setting real_kernel for ELPA failed ***

    13 Broy./Diag. 0.40E+00    1.8     0.00000297      -322.3470468292 -1.44E-05

 *** WARNING in fm/cp_fm_elpa.F:521 :: Setting real_kernel for ELPA failed ***

    14 Broy./Diag. 0.40E+00    1.8     0.00000232      -322.3470422437  4.59E-06

 *** WARNING in fm/cp_fm_elpa.F:521 :: Setting real_kernel for ELPA failed ***

    15 Broy./Diag. 0.40E+00    1.8     0.00000160      -322.3470395995  2.64E-06

 *** WARNING in fm/cp_fm_elpa.F:521 :: Setting real_kernel for ELPA failed ***

    16 Broy./Diag. 0.40E+00    1.8     0.00000072      -322.3470393548  2.45E-07

  *** SCF run converged in    16 steps ***


  Electronic density on regular grids:       -217.9999999995        0.0000000005
  Core density on regular grids:              219.9999999998       -0.0000000002
  Total charge density on r-space grids:        2.0000000003
  Total charge density g-space grids:           2.0000000003

  Overlap energy of the core charge distribution:               0.00001408970704
  Self energy of the core charge distribution:               -766.83425392616255
  Core Hamiltonian energy:                                    231.18352337655165
  Hartree energy:                                             308.90307925998127
  Exchange-correlation energy:                                -95.48106871875700
  Dispersion energy:                                           -0.11833343609399
  Electronic entropic energy:                                  -0.00000000000000
  Fermi energy:                                                -0.26824259615475

  Total energy:                                              -322.34703935477353

 ENERGY| Total FORCE_EVAL ( QS ) energy [hartree]           -322.347038401647183

 OPT| **************************************************************************
 OPT| Step number                                                             20
 OPT| Optimization method                                                   BFGS
 OPT| Total energy [hartree]                                     -322.3470384016
 OPT| Effective energy change [hartree]                            -0.0001687038
 OPT| Predicted energy change [hartree]                            -0.0001622465
 OPT| Scaling factor                                                0.9400567948
 OPT| Step size                                                     0.1265584052
 OPT| Trust radius                                                  0.3779452266
 OPT| Decrease in energy                                                     YES
 OPT| Used time [s]                                                       28.751
 OPT|
 OPT| Maximum step size                                             0.1265584052
 OPT| Convergence limit for maximum step size                       0.0030000000
 OPT| Maximum step size is converged                                          NO
 OPT|
 OPT| RMS step size                                                 0.0167607925
 OPT| Convergence limit for RMS step size                           0.0015000000
 OPT| RMS step size is converged                                              NO
 OPT|
 OPT| Maximum gradient                                              0.0015562250
 OPT| Convergence limit for maximum gradient                        0.0004500000
 OPT| Maximum gradient is converged                                           NO
 OPT|
 OPT| RMS gradient                                                  0.0004744755
 OPT| Convergence limit for RMS gradient                            0.0003000000
 OPT| RMS gradient is converged                                               NO
 OPT| **************************************************************************
 OPT| Estimated peak process memory after this step [MiB]                    716

 --------------------------
 OPTIMIZATION STEP:     21
 --------------------------

 *** WARNING in fm/cp_fm_elpa.F:521 :: Setting real_kernel for ELPA failed ***


 Number of electrons:                                                        218
 Number of occupied orbitals:                                                109
 Number of molecular orbitals:                                               146

 Number of orbital functions:                                                723
 Number of independent orbital functions:                                    723

 *** WARNING in fm/cp_fm_elpa.F:521 :: Setting real_kernel for ELPA failed ***


 Extrapolation method: ASPC


 SCF WAVEFUNCTION OPTIMIZATION

  Step     Update method      Time    Convergence         Total energy    Change
  ------------------------------------------------------------------------------

 *** WARNING in fm/cp_fm_elpa.F:521 :: Setting real_kernel for ELPA failed ***

     1 Broy./Diag. 0.40E+00    1.1     0.02071886      -322.3453854003 -3.22E+02

 *** WARNING in fm/cp_fm_elpa.F:521 :: Setting real_kernel for ELPA failed ***

     2 Broy./Diag. 0.40E+00    1.5     0.00480740      -322.3122700892  3.31E-02

 *** WARNING in fm/cp_fm_elpa.F:521 :: Setting real_kernel for ELPA failed ***

     3 Broy./Diag. 0.40E+00    1.6     0.00153168      -322.3399261548 -2.77E-02

 *** WARNING in fm/cp_fm_elpa.F:521 :: Setting real_kernel for ELPA failed ***

     4 Broy./Diag. 0.40E+00    1.6     0.00077617      -322.3461420089 -6.22E-03

 *** WARNING in fm/cp_fm_elpa.F:521 :: Setting real_kernel for ELPA failed ***

     5 Broy./Diag. 0.40E+00    1.6     0.00022182      -322.3485183484 -2.38E-03

 *** WARNING in fm/cp_fm_elpa.F:521 :: Setting real_kernel for ELPA failed ***

     6 Broy./Diag. 0.40E+00    1.6     0.00003745      -322.3472809067  1.24E-03

 *** WARNING in fm/cp_fm_elpa.F:521 :: Setting real_kernel for ELPA failed ***

     7 Broy./Diag. 0.40E+00    1.7     0.00002673      -322.3470993209  1.82E-04

 *** WARNING in fm/cp_fm_elpa.F:521 :: Setting real_kernel for ELPA failed ***

     8 Broy./Diag. 0.40E+00    1.7     0.00002648      -322.3471189112 -1.96E-05

 *** WARNING in fm/cp_fm_elpa.F:521 :: Setting real_kernel for ELPA failed ***

     9 Broy./Diag. 0.40E+00    1.7     0.00001428      -322.3472199756 -1.01E-04

 *** WARNING in fm/cp_fm_elpa.F:521 :: Setting real_kernel for ELPA failed ***

    10 Broy./Diag. 0.40E+00    1.8     0.00000782      -322.3471965290  2.34E-05

 *** WARNING in fm/cp_fm_elpa.F:521 :: Setting real_kernel for ELPA failed ***

    11 Broy./Diag. 0.40E+00    1.8     0.00000500      -322.3471794583  1.71E-05

 *** WARNING in fm/cp_fm_elpa.F:521 :: Setting real_kernel for ELPA failed ***

    12 Broy./Diag. 0.40E+00    1.8     0.00000417      -322.3471699915  9.47E-06

 *** WARNING in fm/cp_fm_elpa.F:521 :: Setting real_kernel for ELPA failed ***

    13 Broy./Diag. 0.40E+00    1.8     0.00000309      -322.3471732680 -3.28E-06

 *** WARNING in fm/cp_fm_elpa.F:521 :: Setting real_kernel for ELPA failed ***

    14 Broy./Diag. 0.40E+00    1.8     0.00000210      -322.3471687082  4.56E-06

 *** WARNING in fm/cp_fm_elpa.F:521 :: Setting real_kernel for ELPA failed ***

    15 Broy./Diag. 0.40E+00    1.8     0.00000201      -322.3471695121 -8.04E-07

 *** WARNING in fm/cp_fm_elpa.F:521 :: Setting real_kernel for ELPA failed ***

    16 Broy./Diag. 0.40E+00    1.8     0.00000113      -322.3471703440 -8.32E-07

 *** WARNING in fm/cp_fm_elpa.F:521 :: Setting real_kernel for ELPA failed ***

    17 Broy./Diag. 0.40E+00    1.8     0.00000061      -322.3471720707 -1.73E-06

  *** SCF run converged in    17 steps ***


  Electronic density on regular grids:       -217.9999999994        0.0000000006
  Core density on regular grids:              219.9999999998       -0.0000000002
  Total charge density on r-space grids:        2.0000000005
  Total charge density g-space grids:           2.0000000005

  Overlap energy of the core charge distribution:               0.00001410450288
  Self energy of the core charge distribution:               -766.83425392616255
  Core Hamiltonian energy:                                    231.17785437717447
  Hartree energy:                                             308.90727703770477
  Exchange-correlation energy:                                -95.47976859976941
  Dispersion energy:                                           -0.11829506411307
  Electronic entropic energy:                                  -0.00000000000000
  Fermi energy:                                                -0.26804933548887

  Total energy:                                              -322.34717207066302

 ENERGY| Total FORCE_EVAL ( QS ) energy [hartree]           -322.347173009998926

 OPT| **************************************************************************
 OPT| Step number                                                             21
 OPT| Optimization method                                                   BFGS
 OPT| Total energy [hartree]                                     -322.3471730100
 OPT| Effective energy change [hartree]                            -0.0001346084
 OPT| Predicted energy change [hartree]                            -0.0001081268
 OPT| Scaling factor                                                0.9400567948
 OPT| Step size                                                     0.0689483994
 OPT| Trust radius                                                  0.3779452266
 OPT| Decrease in energy                                                     YES
 OPT| Used time [s]                                                       30.530
 OPT|
 OPT| Maximum step size                                             0.0689483994
 OPT| Convergence limit for maximum step size                       0.0030000000
 OPT| Maximum step size is converged                                          NO
 OPT|
 OPT| RMS step size                                                 0.0102941287
 OPT| Convergence limit for RMS step size                           0.0015000000
 OPT| RMS step size is converged                                              NO
 OPT|
 OPT| Maximum gradient                                              0.0010807392
 OPT| Convergence limit for maximum gradient                        0.0004500000
 OPT| Maximum gradient is converged                                           NO
 OPT|
 OPT| RMS gradient                                                  0.0003213306
 OPT| Convergence limit for RMS gradient                            0.0003000000
 OPT| RMS gradient is converged                                               NO
 OPT| **************************************************************************
 OPT| Estimated peak process memory after this step [MiB]                    716

 --------------------------
 OPTIMIZATION STEP:     22
 --------------------------

 *** WARNING in fm/cp_fm_elpa.F:521 :: Setting real_kernel for ELPA failed ***


 Number of electrons:                                                        218
 Number of occupied orbitals:                                                109
 Number of molecular orbitals:                                               146

 Number of orbital functions:                                                723
 Number of independent orbital functions:                                    723

 *** WARNING in fm/cp_fm_elpa.F:521 :: Setting real_kernel for ELPA failed ***


 Extrapolation method: ASPC


 SCF WAVEFUNCTION OPTIMIZATION

  Step     Update method      Time    Convergence         Total energy    Change
  ------------------------------------------------------------------------------

 *** WARNING in fm/cp_fm_elpa.F:521 :: Setting real_kernel for ELPA failed ***

     1 Broy./Diag. 0.40E+00    1.1     0.01694808      -322.3461674468 -3.22E+02

 *** WARNING in fm/cp_fm_elpa.F:521 :: Setting real_kernel for ELPA failed ***

     2 Broy./Diag. 0.40E+00    1.5     0.00172869      -322.3491837485 -3.02E-03

 *** WARNING in fm/cp_fm_elpa.F:521 :: Setting real_kernel for ELPA failed ***

     3 Broy./Diag. 0.40E+00    1.6     0.00055856      -322.3490063808  1.77E-04

 *** WARNING in fm/cp_fm_elpa.F:521 :: Setting real_kernel for ELPA failed ***

     4 Broy./Diag. 0.40E+00    1.6     0.00016804      -322.3479737460  1.03E-03

 *** WARNING in fm/cp_fm_elpa.F:521 :: Setting real_kernel for ELPA failed ***

     5 Broy./Diag. 0.40E+00    1.6     0.00008851      -322.3478418810  1.32E-04

 *** WARNING in fm/cp_fm_elpa.F:521 :: Setting real_kernel for ELPA failed ***

     6 Broy./Diag. 0.40E+00    1.6     0.00004766      -322.3474948442  3.47E-04

 *** WARNING in fm/cp_fm_elpa.F:521 :: Setting real_kernel for ELPA failed ***

     7 Broy./Diag. 0.40E+00    1.7     0.00001883      -322.3475365933 -4.17E-05

 *** WARNING in fm/cp_fm_elpa.F:521 :: Setting real_kernel for ELPA failed ***

     8 Broy./Diag. 0.40E+00    1.7     0.00002842      -322.3474135990  1.23E-04

 *** WARNING in fm/cp_fm_elpa.F:521 :: Setting real_kernel for ELPA failed ***

     9 Broy./Diag. 0.40E+00    1.7     0.00000983      -322.3473582107  5.54E-05

 *** WARNING in fm/cp_fm_elpa.F:521 :: Setting real_kernel for ELPA failed ***

    10 Broy./Diag. 0.40E+00    1.8     0.00000898      -322.3472729603  8.53E-05

 *** WARNING in fm/cp_fm_elpa.F:521 :: Setting real_kernel for ELPA failed ***

    11 Broy./Diag. 0.40E+00    1.8     0.00000555      -322.3472727174  2.43E-07

 *** WARNING in fm/cp_fm_elpa.F:521 :: Setting real_kernel for ELPA failed ***

    12 Broy./Diag. 0.40E+00    1.8     0.00000289      -322.3472922875 -1.96E-05

 *** WARNING in fm/cp_fm_elpa.F:521 :: Setting real_kernel for ELPA failed ***

    13 Broy./Diag. 0.40E+00    1.8     0.00000153      -322.3473036118 -1.13E-05

 *** WARNING in fm/cp_fm_elpa.F:521 :: Setting real_kernel for ELPA failed ***

    14 Broy./Diag. 0.40E+00    1.8     0.00000125      -322.3472993285  4.28E-06

 *** WARNING in fm/cp_fm_elpa.F:521 :: Setting real_kernel for ELPA failed ***

    15 Broy./Diag. 0.40E+00    1.8     0.00000083      -322.3472998431 -5.15E-07

  *** SCF run converged in    15 steps ***


  Electronic density on regular grids:       -217.9999999991        0.0000000009
  Core density on regular grids:              219.9999999998       -0.0000000002
  Total charge density on r-space grids:        2.0000000007
  Total charge density g-space grids:           2.0000000007

  Overlap energy of the core charge distribution:               0.00001413428775
  Self energy of the core charge distribution:               -766.83425392616255
  Core Hamiltonian energy:                                    231.17737385285025
  Hartree energy:                                             308.90770250172312
  Exchange-correlation energy:                                -95.47988683248340
  Dispersion energy:                                           -0.11824957330022
  Electronic entropic energy:                                  -0.00000000000000
  Fermi energy:                                                -0.26792716587937

  Total energy:                                              -322.34729984308501

 ENERGY| Total FORCE_EVAL ( QS ) energy [hartree]           -322.347297654310466

 OPT| **************************************************************************
 OPT| Step number                                                             22
 OPT| Optimization method                                                   BFGS
 OPT| Total energy [hartree]                                     -322.3472976543
 OPT| Effective energy change [hartree]                            -0.0001246443
 OPT| Predicted energy change [hartree]                            -0.0000950288
 OPT| Scaling factor                                                0.9400567948
 OPT| Step size                                                     0.0854801519
 OPT| Trust radius                                                  0.3779452266
 OPT| Decrease in energy                                                     YES
 OPT| Used time [s]                                                       26.967
 OPT|
 OPT| Maximum step size                                             0.0854801519
 OPT| Convergence limit for maximum step size                       0.0030000000
 OPT| Maximum step size is converged                                          NO
 OPT|
 OPT| RMS step size                                                 0.0126648833
 OPT| Convergence limit for RMS step size                           0.0015000000
 OPT| RMS step size is converged                                              NO
 OPT|
 OPT| Maximum gradient                                              0.0021093432
 OPT| Convergence limit for maximum gradient                        0.0004500000
 OPT| Maximum gradient is converged                                           NO
 OPT|
 OPT| RMS gradient                                                  0.0004058131
 OPT| Convergence limit for RMS gradient                            0.0003000000
 OPT| RMS gradient is converged                                               NO
 OPT| **************************************************************************
 OPT| Estimated peak process memory after this step [MiB]                    716

 --------------------------
 OPTIMIZATION STEP:     23
 --------------------------

 *** WARNING in fm/cp_fm_elpa.F:521 :: Setting real_kernel for ELPA failed ***


 Number of electrons:                                                        218
 Number of occupied orbitals:                                                109
 Number of molecular orbitals:                                               146

 Number of orbital functions:                                                723
 Number of independent orbital functions:                                    723

 *** WARNING in fm/cp_fm_elpa.F:521 :: Setting real_kernel for ELPA failed ***


 Extrapolation method: ASPC


 SCF WAVEFUNCTION OPTIMIZATION

  Step     Update method      Time    Convergence         Total energy    Change
  ------------------------------------------------------------------------------

 *** WARNING in fm/cp_fm_elpa.F:521 :: Setting real_kernel for ELPA failed ***

     1 Broy./Diag. 0.40E+00    1.1     0.01037403      -322.3462241937 -3.22E+02

 *** WARNING in fm/cp_fm_elpa.F:521 :: Setting real_kernel for ELPA failed ***

     2 Broy./Diag. 0.40E+00    1.5     0.00264094      -322.3380464841  8.18E-03

 *** WARNING in fm/cp_fm_elpa.F:521 :: Setting real_kernel for ELPA failed ***

     3 Broy./Diag. 0.40E+00    1.6     0.00055773      -322.3471088601 -9.06E-03

 *** WARNING in fm/cp_fm_elpa.F:521 :: Setting real_kernel for ELPA failed ***

     4 Broy./Diag. 0.40E+00    1.6     0.00040439      -322.3477885615 -6.80E-04

 *** WARNING in fm/cp_fm_elpa.F:521 :: Setting real_kernel for ELPA failed ***

     5 Broy./Diag. 0.40E+00    1.6     0.00014010      -322.3482475460 -4.59E-04

 *** WARNING in fm/cp_fm_elpa.F:521 :: Setting real_kernel for ELPA failed ***

     6 Broy./Diag. 0.40E+00    1.6     0.00005484      -322.3476452922  6.02E-04

 *** WARNING in fm/cp_fm_elpa.F:521 :: Setting real_kernel for ELPA failed ***

     7 Broy./Diag. 0.40E+00    1.7     0.00001802      -322.3476864770 -4.12E-05

 *** WARNING in fm/cp_fm_elpa.F:521 :: Setting real_kernel for ELPA failed ***

     8 Broy./Diag. 0.40E+00    1.7     0.00001681      -322.3475921550  9.43E-05

 *** WARNING in fm/cp_fm_elpa.F:521 :: Setting real_kernel for ELPA failed ***

     9 Broy./Diag. 0.40E+00    1.7     0.00000830      -322.3475104804  8.17E-05

 *** WARNING in fm/cp_fm_elpa.F:521 :: Setting real_kernel for ELPA failed ***

    10 Broy./Diag. 0.40E+00    1.8     0.00000663      -322.3474425041  6.80E-05

 *** WARNING in fm/cp_fm_elpa.F:521 :: Setting real_kernel for ELPA failed ***

    11 Broy./Diag. 0.40E+00    1.8     0.00000439      -322.3474309343  1.16E-05

 *** WARNING in fm/cp_fm_elpa.F:521 :: Setting real_kernel for ELPA failed ***

    12 Broy./Diag. 0.40E+00    1.8     0.00000273      -322.3474237161  7.22E-06

 *** WARNING in fm/cp_fm_elpa.F:521 :: Setting real_kernel for ELPA failed ***

    13 Broy./Diag. 0.40E+00    1.8     0.00000172      -322.3474186027  5.11E-06

 *** WARNING in fm/cp_fm_elpa.F:521 :: Setting real_kernel for ELPA failed ***

    14 Broy./Diag. 0.40E+00    1.8     0.00000171      -322.3474130884  5.51E-06

 *** WARNING in fm/cp_fm_elpa.F:521 :: Setting real_kernel for ELPA failed ***

    15 Broy./Diag. 0.40E+00    1.8     0.00000128      -322.3474169235 -3.84E-06

 *** WARNING in fm/cp_fm_elpa.F:521 :: Setting real_kernel for ELPA failed ***

    16 Broy./Diag. 0.40E+00    1.8     0.00000076      -322.3474182034 -1.28E-06

  *** SCF run converged in    16 steps ***


  Electronic density on regular grids:       -217.9999999989        0.0000000011
  Core density on regular grids:              219.9999999998       -0.0000000002
  Total charge density on r-space grids:        2.0000000009
  Total charge density g-space grids:           2.0000000009

  Overlap energy of the core charge distribution:               0.00001416708274
  Self energy of the core charge distribution:               -766.83425392616255
  Core Hamiltonian energy:                                    231.17760270377232
  Hartree energy:                                             308.90756319155207
  Exchange-correlation energy:                                -95.48014611832296
  Dispersion energy:                                           -0.11819822136184
  Electronic entropic energy:                                  -0.00000000000000
  Fermi energy:                                                -0.26779487335261

  Total energy:                                              -322.34741820344021

 ENERGY| Total FORCE_EVAL ( QS ) energy [hartree]           -322.347419761519006

 OPT| **************************************************************************
 OPT| Step number                                                             23
 OPT| Optimization method                                                   BFGS
 OPT| Total energy [hartree]                                     -322.3474197615
 OPT| Effective energy change [hartree]                            -0.0001221072
 OPT| Predicted energy change [hartree]                            -0.0001124229
 OPT| Scaling factor                                                0.9400567948
 OPT| Step size                                                     0.1030177597
 OPT| Trust radius                                                  0.3779452266
 OPT| Decrease in energy                                                     YES
 OPT| Used time [s]                                                       28.741
 OPT|
 OPT| Maximum step size                                             0.1030177597
 OPT| Convergence limit for maximum step size                       0.0030000000
 OPT| Maximum step size is converged                                          NO
 OPT|
 OPT| RMS step size                                                 0.0175296891
 OPT| Convergence limit for RMS step size                           0.0015000000
 OPT| RMS step size is converged                                              NO
 OPT|
 OPT| Maximum gradient                                              0.0024554941
 OPT| Convergence limit for maximum gradient                        0.0004500000
 OPT| Maximum gradient is converged                                           NO
 OPT|
 OPT| RMS gradient                                                  0.0005394597
 OPT| Convergence limit for RMS gradient                            0.0003000000
 OPT| RMS gradient is converged                                               NO
 OPT| **************************************************************************
 OPT| Estimated peak process memory after this step [MiB]                    716

 --------------------------
 OPTIMIZATION STEP:     24
 --------------------------

 *** WARNING in fm/cp_fm_elpa.F:521 :: Setting real_kernel for ELPA failed ***


 Number of electrons:                                                        218
 Number of occupied orbitals:                                                109
 Number of molecular orbitals:                                               146

 Number of orbital functions:                                                723
 Number of independent orbital functions:                                    723

 *** WARNING in fm/cp_fm_elpa.F:521 :: Setting real_kernel for ELPA failed ***


 Extrapolation method: ASPC


 SCF WAVEFUNCTION OPTIMIZATION

  Step     Update method      Time    Convergence         Total energy    Change
  ------------------------------------------------------------------------------

 *** WARNING in fm/cp_fm_elpa.F:521 :: Setting real_kernel for ELPA failed ***

     1 Broy./Diag. 0.40E+00    1.1     0.00707170      -322.3466208716 -3.22E+02

 *** WARNING in fm/cp_fm_elpa.F:521 :: Setting real_kernel for ELPA failed ***

     2 Broy./Diag. 0.40E+00    1.5     0.00147983      -322.3462177455  4.03E-04

 *** WARNING in fm/cp_fm_elpa.F:521 :: Setting real_kernel for ELPA failed ***

     3 Broy./Diag. 0.40E+00    1.6     0.00028330      -322.3483783441 -2.16E-03

 *** WARNING in fm/cp_fm_elpa.F:521 :: Setting real_kernel for ELPA failed ***

     4 Broy./Diag. 0.40E+00    1.6     0.00019944      -322.3473133527  1.06E-03

 *** WARNING in fm/cp_fm_elpa.F:521 :: Setting real_kernel for ELPA failed ***

     5 Broy./Diag. 0.40E+00    1.6     0.00007329      -322.3478472903 -5.34E-04

 *** WARNING in fm/cp_fm_elpa.F:521 :: Setting real_kernel for ELPA failed ***

     6 Broy./Diag. 0.40E+00    1.6     0.00003104      -322.3476429432  2.04E-04

 *** WARNING in fm/cp_fm_elpa.F:521 :: Setting real_kernel for ELPA failed ***

     7 Broy./Diag. 0.40E+00    1.7     0.00001766      -322.3477079599 -6.50E-05

 *** WARNING in fm/cp_fm_elpa.F:521 :: Setting real_kernel for ELPA failed ***

     8 Broy./Diag. 0.40E+00    1.7     0.00001476      -322.3476226245  8.53E-05

 *** WARNING in fm/cp_fm_elpa.F:521 :: Setting real_kernel for ELPA failed ***

     9 Broy./Diag. 0.40E+00    1.7     0.00000863      -322.3475719132  5.07E-05

 *** WARNING in fm/cp_fm_elpa.F:521 :: Setting real_kernel for ELPA failed ***

    10 Broy./Diag. 0.40E+00    1.8     0.00000526      -322.3475389028  3.30E-05

 *** WARNING in fm/cp_fm_elpa.F:521 :: Setting real_kernel for ELPA failed ***

    11 Broy./Diag. 0.40E+00    1.8     0.00000385      -322.3475364493  2.45E-06

 *** WARNING in fm/cp_fm_elpa.F:521 :: Setting real_kernel for ELPA failed ***

    12 Broy./Diag. 0.40E+00    1.8     0.00000273      -322.3475279256  8.52E-06

 *** WARNING in fm/cp_fm_elpa.F:521 :: Setting real_kernel for ELPA failed ***

    13 Broy./Diag. 0.40E+00    1.8     0.00000187      -322.3475227557  5.17E-06

 *** WARNING in fm/cp_fm_elpa.F:521 :: Setting real_kernel for ELPA failed ***

    14 Broy./Diag. 0.40E+00    1.8     0.00000182      -322.3475236049 -8.49E-07

 *** WARNING in fm/cp_fm_elpa.F:521 :: Setting real_kernel for ELPA failed ***

    15 Broy./Diag. 0.40E+00    1.7     0.00000126      -322.3475262366 -2.63E-06

 *** WARNING in fm/cp_fm_elpa.F:521 :: Setting real_kernel for ELPA failed ***

    16 Broy./Diag. 0.40E+00    1.7     0.00000064      -322.3475262924 -5.58E-08

  *** SCF run converged in    16 steps ***


  Electronic density on regular grids:       -217.9999999988        0.0000000012
  Core density on regular grids:              219.9999999998       -0.0000000002
  Total charge density on r-space grids:        2.0000000010
  Total charge density g-space grids:           2.0000000010

  Overlap energy of the core charge distribution:               0.00001414584015
  Self energy of the core charge distribution:               -766.83425392616255
  Core Hamiltonian energy:                                    231.17010542419476
  Hartree energy:                                             308.91280640262693
  Exchange-correlation energy:                                -95.47803033441940
  Dispersion energy:                                           -0.11816800448889
  Electronic entropic energy:                                  -0.00000000000000
  Fermi energy:                                                -0.26781723028655

  Total energy:                                              -322.34752629240904

 ENERGY| Total FORCE_EVAL ( QS ) energy [hartree]           -322.347529351697290

 OPT| **************************************************************************
 OPT| Step number                                                             24
 OPT| Optimization method                                                   BFGS
 OPT| Total energy [hartree]                                     -322.3475293517
 OPT| Effective energy change [hartree]                            -0.0001095902
 OPT| Predicted energy change [hartree]                            -0.0000852508
 OPT| Scaling factor                                                0.9400567948
 OPT| Step size                                                     0.0535551151
 OPT| Trust radius                                                  0.3779452266
 OPT| Decrease in energy                                                     YES
 OPT| Used time [s]                                                       28.522
 OPT|
 OPT| Maximum step size                                             0.0535551151
 OPT| Convergence limit for maximum step size                       0.0030000000
 OPT| Maximum step size is converged                                          NO
 OPT|
 OPT| RMS step size                                                 0.0106299473
 OPT| Convergence limit for RMS step size                           0.0015000000
 OPT| RMS step size is converged                                              NO
 OPT|
 OPT| Maximum gradient                                              0.0018341370
 OPT| Convergence limit for maximum gradient                        0.0004500000
 OPT| Maximum gradient is converged                                           NO
 OPT|
 OPT| RMS gradient                                                  0.0004163074
 OPT| Convergence limit for RMS gradient                            0.0003000000
 OPT| RMS gradient is converged                                               NO
 OPT| **************************************************************************
 OPT| Estimated peak process memory after this step [MiB]                    716

 --------------------------
 OPTIMIZATION STEP:     25
 --------------------------

 *** WARNING in fm/cp_fm_elpa.F:521 :: Setting real_kernel for ELPA failed ***


 Number of electrons:                                                        218
 Number of occupied orbitals:                                                109
 Number of molecular orbitals:                                               146

 Number of orbital functions:                                                723
 Number of independent orbital functions:                                    723

 *** WARNING in fm/cp_fm_elpa.F:521 :: Setting real_kernel for ELPA failed ***


 Extrapolation method: ASPC


 SCF WAVEFUNCTION OPTIMIZATION

  Step     Update method      Time    Convergence         Total energy    Change
  ------------------------------------------------------------------------------

 *** WARNING in fm/cp_fm_elpa.F:521 :: Setting real_kernel for ELPA failed ***

     1 Broy./Diag. 0.40E+00    1.1     0.00922848      -322.3468412410 -3.22E+02

 *** WARNING in fm/cp_fm_elpa.F:521 :: Setting real_kernel for ELPA failed ***

     2 Broy./Diag. 0.40E+00    1.5     0.00066538      -322.3434776480  3.36E-03

 *** WARNING in fm/cp_fm_elpa.F:521 :: Setting real_kernel for ELPA failed ***

     3 Broy./Diag. 0.40E+00    1.5     0.00032509      -322.3473762669 -3.90E-03

 *** WARNING in fm/cp_fm_elpa.F:521 :: Setting real_kernel for ELPA failed ***

     4 Broy./Diag. 0.40E+00    1.5     0.00021544      -322.3471926767  1.84E-04

 *** WARNING in fm/cp_fm_elpa.F:521 :: Setting real_kernel for ELPA failed ***

     5 Broy./Diag. 0.40E+00    1.5     0.00007933      -322.3478208369 -6.28E-04

 *** WARNING in fm/cp_fm_elpa.F:521 :: Setting real_kernel for ELPA failed ***

     6 Broy./Diag. 0.40E+00    1.5     0.00002682      -322.3476445900  1.76E-04

 *** WARNING in fm/cp_fm_elpa.F:521 :: Setting real_kernel for ELPA failed ***

     7 Broy./Diag. 0.40E+00    1.6     0.00001117      -322.3477154697 -7.09E-05

 *** WARNING in fm/cp_fm_elpa.F:521 :: Setting real_kernel for ELPA failed ***

     8 Broy./Diag. 0.40E+00    1.6     0.00001481      -322.3477016052  1.39E-05

 *** WARNING in fm/cp_fm_elpa.F:521 :: Setting real_kernel for ELPA failed ***

     9 Broy./Diag. 0.40E+00    1.6     0.00000901      -322.3476909286  1.07E-05

 *** WARNING in fm/cp_fm_elpa.F:521 :: Setting real_kernel for ELPA failed ***

    10 Broy./Diag. 0.40E+00    1.7     0.00000659      -322.3476808717  1.01E-05

 *** WARNING in fm/cp_fm_elpa.F:521 :: Setting real_kernel for ELPA failed ***

    11 Broy./Diag. 0.40E+00    1.7     0.00000414      -322.3476774936  3.38E-06

 *** WARNING in fm/cp_fm_elpa.F:521 :: Setting real_kernel for ELPA failed ***

    12 Broy./Diag. 0.40E+00    1.7     0.00000226      -322.3476674391  1.01E-05

 *** WARNING in fm/cp_fm_elpa.F:521 :: Setting real_kernel for ELPA failed ***

    13 Broy./Diag. 0.40E+00    1.7     0.00000138      -322.3476653170  2.12E-06

 *** WARNING in fm/cp_fm_elpa.F:521 :: Setting real_kernel for ELPA failed ***

    14 Broy./Diag. 0.40E+00    1.7     0.00000068      -322.3476653857 -6.87E-08

  *** SCF run converged in    14 steps ***


  Electronic density on regular grids:       -217.9999999988        0.0000000012
  Core density on regular grids:              219.9999999998       -0.0000000002
  Total charge density on r-space grids:        2.0000000010
  Total charge density g-space grids:           2.0000000010

  Overlap energy of the core charge distribution:               0.00001412904405
  Self energy of the core charge distribution:               -766.83425392616255
  Core Hamiltonian energy:                                    231.16891928532425
  Hartree energy:                                             308.91333852989476
  Exchange-correlation energy:                                -95.47751415521303
  Dispersion energy:                                           -0.11816924855644
  Electronic entropic energy:                                  -0.00000000000000
  Fermi energy:                                                -0.26795867455878

  Total energy:                                              -322.34766538566896

 ENERGY| Total FORCE_EVAL ( QS ) energy [hartree]           -322.347671682554733

 OPT| **************************************************************************
 OPT| Step number                                                             25
 OPT| Optimization method                                                   BFGS
 OPT| Total energy [hartree]                                     -322.3476716826
 OPT| Effective energy change [hartree]                            -0.0001423309
 OPT| Predicted energy change [hartree]                            -0.0001157623
 OPT| Scaling factor                                                0.9400567948
 OPT| Step size                                                     0.0471277190
 OPT| Trust radius                                                  0.3779452266
 OPT| Decrease in energy                                                     YES
 OPT| Used time [s]                                                       23.842
 OPT|
 OPT| Maximum step size                                             0.0471277190
 OPT| Convergence limit for maximum step size                       0.0030000000
 OPT| Maximum step size is converged                                          NO
 OPT|
 OPT| RMS step size                                                 0.0099333424
 OPT| Convergence limit for RMS step size                           0.0015000000
 OPT| RMS step size is converged                                              NO
 OPT|
 OPT| Maximum gradient                                              0.0013699614
 OPT| Convergence limit for maximum gradient                        0.0004500000
 OPT| Maximum gradient is converged                                           NO
 OPT|
 OPT| RMS gradient                                                  0.0003892396
 OPT| Convergence limit for RMS gradient                            0.0003000000
 OPT| RMS gradient is converged                                               NO
 OPT| **************************************************************************
 OPT| Estimated peak process memory after this step [MiB]                    716

 --------------------------
 OPTIMIZATION STEP:     26
 --------------------------

 *** WARNING in fm/cp_fm_elpa.F:521 :: Setting real_kernel for ELPA failed ***


 Number of electrons:                                                        218
 Number of occupied orbitals:                                                109
 Number of molecular orbitals:                                               146

 Number of orbital functions:                                                723
 Number of independent orbital functions:                                    723

 *** WARNING in fm/cp_fm_elpa.F:521 :: Setting real_kernel for ELPA failed ***


 Extrapolation method: ASPC


 SCF WAVEFUNCTION OPTIMIZATION

  Step     Update method      Time    Convergence         Total energy    Change
  ------------------------------------------------------------------------------

 *** WARNING in fm/cp_fm_elpa.F:521 :: Setting real_kernel for ELPA failed ***

     1 Broy./Diag. 0.40E+00    1.1     0.00726018      -322.3470650982 -3.22E+02

 *** WARNING in fm/cp_fm_elpa.F:521 :: Setting real_kernel for ELPA failed ***

     2 Broy./Diag. 0.40E+00    1.5     0.00139725      -322.3504781898 -3.41E-03

 *** WARNING in fm/cp_fm_elpa.F:521 :: Setting real_kernel for ELPA failed ***

     3 Broy./Diag. 0.40E+00    1.5     0.00071561      -322.3490393840  1.44E-03

 *** WARNING in fm/cp_fm_elpa.F:521 :: Setting real_kernel for ELPA failed ***

     4 Broy./Diag. 0.40E+00    1.5     0.00046338      -322.3470531077  1.99E-03

 *** WARNING in fm/cp_fm_elpa.F:521 :: Setting real_kernel for ELPA failed ***

     5 Broy./Diag. 0.40E+00    1.5     0.00011214      -322.3476408575 -5.88E-04

 *** WARNING in fm/cp_fm_elpa.F:521 :: Setting real_kernel for ELPA failed ***

     6 Broy./Diag. 0.40E+00    1.5     0.00003020      -322.3477572238 -1.16E-04

 *** WARNING in fm/cp_fm_elpa.F:521 :: Setting real_kernel for ELPA failed ***

     7 Broy./Diag. 0.40E+00    1.6     0.00001567      -322.3478393114 -8.21E-05

 *** WARNING in fm/cp_fm_elpa.F:521 :: Setting real_kernel for ELPA failed ***

     8 Broy./Diag. 0.40E+00    1.6     0.00001694      -322.3477858123  5.35E-05

 *** WARNING in fm/cp_fm_elpa.F:521 :: Setting real_kernel for ELPA failed ***

     9 Broy./Diag. 0.40E+00    1.6     0.00001170      -322.3477933507 -7.54E-06

 *** WARNING in fm/cp_fm_elpa.F:521 :: Setting real_kernel for ELPA failed ***

    10 Broy./Diag. 0.40E+00    1.7     0.00001131      -322.3477930944  2.56E-07

 *** WARNING in fm/cp_fm_elpa.F:521 :: Setting real_kernel for ELPA failed ***

    11 Broy./Diag. 0.40E+00    1.7     0.00000612      -322.3477908693  2.23E-06

 *** WARNING in fm/cp_fm_elpa.F:521 :: Setting real_kernel for ELPA failed ***

    12 Broy./Diag. 0.40E+00    1.7     0.00000243      -322.3477715457  1.93E-05

 *** WARNING in fm/cp_fm_elpa.F:521 :: Setting real_kernel for ELPA failed ***

    13 Broy./Diag. 0.40E+00    1.7     0.00000220      -322.3477727997 -1.25E-06

 *** WARNING in fm/cp_fm_elpa.F:521 :: Setting real_kernel for ELPA failed ***

    14 Broy./Diag. 0.40E+00    1.7     0.00000091      -322.3477726504  1.49E-07

  *** SCF run converged in    14 steps ***


  Electronic density on regular grids:       -217.9999999989        0.0000000011
  Core density on regular grids:              219.9999999998       -0.0000000002
  Total charge density on r-space grids:        2.0000000010
  Total charge density g-space grids:           2.0000000010

  Overlap energy of the core charge distribution:               0.00001412387592
  Self energy of the core charge distribution:               -766.83425392616255
  Core Hamiltonian energy:                                    231.17504026173953
  Hartree energy:                                             308.90860037215151
  Exchange-correlation energy:                                -95.47897787591343
  Dispersion energy:                                           -0.11819560607406
  Electronic entropic energy:                                  -0.00000000000000
  Fermi energy:                                                -0.26799442801287

  Total energy:                                              -322.34777265038315

 ENERGY| Total FORCE_EVAL ( QS ) energy [hartree]           -322.347778385487345

 OPT| **************************************************************************
 OPT| Step number                                                             26
 OPT| Optimization method                                                   BFGS
 OPT| Total energy [hartree]                                     -322.3477783855
 OPT| Effective energy change [hartree]                            -0.0001067029
 OPT| Predicted energy change [hartree]                            -0.0000867705
 OPT| Scaling factor                                                0.9400567948
 OPT| Step size                                                     0.0448574001
 OPT| Trust radius                                                  0.3779452266
 OPT| Decrease in energy                                                     YES
 OPT| Used time [s]                                                       23.804
 OPT|
 OPT| Maximum step size                                             0.0448574001
 OPT| Convergence limit for maximum step size                       0.0030000000
 OPT| Maximum step size is converged                                          NO
 OPT|
 OPT| RMS step size                                                 0.0082534566
 OPT| Convergence limit for RMS step size                           0.0015000000
 OPT| RMS step size is converged                                              NO
 OPT|
 OPT| Maximum gradient                                              0.0021209815
 OPT| Convergence limit for maximum gradient                        0.0004500000
 OPT| Maximum gradient is converged                                           NO
 OPT|
 OPT| RMS gradient                                                  0.0004528086
 OPT| Convergence limit for RMS gradient                            0.0003000000
 OPT| RMS gradient is converged                                               NO
 OPT| **************************************************************************
 OPT| Estimated peak process memory after this step [MiB]                    716

 --------------------------
 OPTIMIZATION STEP:     27
 --------------------------

 *** WARNING in fm/cp_fm_elpa.F:521 :: Setting real_kernel for ELPA failed ***


 Number of electrons:                                                        218
 Number of occupied orbitals:                                                109
 Number of molecular orbitals:                                               146

 Number of orbital functions:                                                723
 Number of independent orbital functions:                                    723

 *** WARNING in fm/cp_fm_elpa.F:521 :: Setting real_kernel for ELPA failed ***


 Extrapolation method: ASPC


 SCF WAVEFUNCTION OPTIMIZATION

  Step     Update method      Time    Convergence         Total energy    Change
  ------------------------------------------------------------------------------

 *** WARNING in fm/cp_fm_elpa.F:521 :: Setting real_kernel for ELPA failed ***

     1 Broy./Diag. 0.40E+00    1.1     0.00947873      -322.3472969789 -3.22E+02

 *** WARNING in fm/cp_fm_elpa.F:521 :: Setting real_kernel for ELPA failed ***

     2 Broy./Diag. 0.40E+00    1.5     0.00105346      -322.3502431183 -2.95E-03

 *** WARNING in fm/cp_fm_elpa.F:521 :: Setting real_kernel for ELPA failed ***

     3 Broy./Diag. 0.40E+00    1.5     0.00037510      -322.3490374378  1.21E-03

 *** WARNING in fm/cp_fm_elpa.F:521 :: Setting real_kernel for ELPA failed ***

     4 Broy./Diag. 0.40E+00    1.5     0.00023392      -322.3481207172  9.17E-04

 *** WARNING in fm/cp_fm_elpa.F:521 :: Setting real_kernel for ELPA failed ***

     5 Broy./Diag. 0.40E+00    1.5     0.00006646      -322.3479405202  1.80E-04

 *** WARNING in fm/cp_fm_elpa.F:521 :: Setting real_kernel for ELPA failed ***

     6 Broy./Diag. 0.40E+00    1.5     0.00002380      -322.3480088618 -6.83E-05

 *** WARNING in fm/cp_fm_elpa.F:521 :: Setting real_kernel for ELPA failed ***

     7 Broy./Diag. 0.40E+00    1.6     0.00001150      -322.3479742403  3.46E-05

 *** WARNING in fm/cp_fm_elpa.F:521 :: Setting real_kernel for ELPA failed ***

     8 Broy./Diag. 0.40E+00    1.6     0.00000626      -322.3479688749  5.37E-06

 *** WARNING in fm/cp_fm_elpa.F:521 :: Setting real_kernel for ELPA failed ***

     9 Broy./Diag. 0.40E+00    1.6     0.00000468      -322.3479314899  3.74E-05

 *** WARNING in fm/cp_fm_elpa.F:521 :: Setting real_kernel for ELPA failed ***

    10 Broy./Diag. 0.40E+00    1.7     0.00000444      -322.3479211508  1.03E-05

 *** WARNING in fm/cp_fm_elpa.F:521 :: Setting real_kernel for ELPA failed ***

    11 Broy./Diag. 0.40E+00    1.7     0.00000210      -322.3479092537  1.19E-05

 *** WARNING in fm/cp_fm_elpa.F:521 :: Setting real_kernel for ELPA failed ***

    12 Broy./Diag. 0.40E+00    1.7     0.00000127      -322.3479056835  3.57E-06

 *** WARNING in fm/cp_fm_elpa.F:521 :: Setting real_kernel for ELPA failed ***

    13 Broy./Diag. 0.40E+00    1.7     0.00000104      -322.3479026234  3.06E-06

 *** WARNING in fm/cp_fm_elpa.F:521 :: Setting real_kernel for ELPA failed ***

    14 Broy./Diag. 0.40E+00    1.7     0.00000064      -322.3479020358  5.88E-07

  *** SCF run converged in    14 steps ***


  Electronic density on regular grids:       -217.9999999988        0.0000000012
  Core density on regular grids:              219.9999999998       -0.0000000002
  Total charge density on r-space grids:        2.0000000010
  Total charge density g-space grids:           2.0000000010

  Overlap energy of the core charge distribution:               0.00001408032774
  Self energy of the core charge distribution:               -766.83425392616255
  Core Hamiltonian energy:                                    231.16604012460414
  Hartree energy:                                             308.91475518237905
  Exchange-correlation energy:                                -95.47627976655259
  Dispersion energy:                                           -0.11817773036685
  Electronic entropic energy:                                  -0.00000000000000
  Fermi energy:                                                -0.26803308782615

  Total energy:                                              -322.34790203577097

 ENERGY| Total FORCE_EVAL ( QS ) energy [hartree]           -322.347897945390287

 OPT| **************************************************************************
 OPT| Step number                                                             27
 OPT| Optimization method                                                   BFGS
 OPT| Total energy [hartree]                                     -322.3478979454
 OPT| Effective energy change [hartree]                            -0.0001195599
 OPT| Predicted energy change [hartree]                            -0.0000934590
 OPT| Scaling factor                                                0.9400567948
 OPT| Step size                                                     0.0366634625
 OPT| Trust radius                                                  0.3779452266
 OPT| Decrease in energy                                                     YES
 OPT| Used time [s]                                                       23.829
 OPT|
 OPT| Maximum step size                                             0.0366634625
 OPT| Convergence limit for maximum step size                       0.0030000000
 OPT| Maximum step size is converged                                          NO
 OPT|
 OPT| RMS step size                                                 0.0077238804
 OPT| Convergence limit for RMS step size                           0.0015000000
 OPT| RMS step size is converged                                              NO
 OPT|
 OPT| Maximum gradient                                              0.0021037569
 OPT| Convergence limit for maximum gradient                        0.0004500000
 OPT| Maximum gradient is converged                                           NO
 OPT|
 OPT| RMS gradient                                                  0.0004428465
 OPT| Convergence limit for RMS gradient                            0.0003000000
 OPT| RMS gradient is converged                                               NO
 OPT| **************************************************************************
 OPT| Estimated peak process memory after this step [MiB]                    716

 --------------------------
 OPTIMIZATION STEP:     28
 --------------------------

 *** WARNING in fm/cp_fm_elpa.F:521 :: Setting real_kernel for ELPA failed ***


 Number of electrons:                                                        218
 Number of occupied orbitals:                                                109
 Number of molecular orbitals:                                               146

 Number of orbital functions:                                                723
 Number of independent orbital functions:                                    723

 *** WARNING in fm/cp_fm_elpa.F:521 :: Setting real_kernel for ELPA failed ***


 Extrapolation method: ASPC


 SCF WAVEFUNCTION OPTIMIZATION

  Step     Update method      Time    Convergence         Total energy    Change
  ------------------------------------------------------------------------------

 *** WARNING in fm/cp_fm_elpa.F:521 :: Setting real_kernel for ELPA failed ***

     1 Broy./Diag. 0.40E+00    1.1     0.00925308      -322.3472639537 -3.22E+02

 *** WARNING in fm/cp_fm_elpa.F:521 :: Setting real_kernel for ELPA failed ***

     2 Broy./Diag. 0.40E+00    1.5     0.00224310      -322.3334680890  1.38E-02

 *** WARNING in fm/cp_fm_elpa.F:521 :: Setting real_kernel for ELPA failed ***

     3 Broy./Diag. 0.40E+00    1.5     0.00068720      -322.3461242746 -1.27E-02

 *** WARNING in fm/cp_fm_elpa.F:521 :: Setting real_kernel for ELPA failed ***

     4 Broy./Diag. 0.40E+00    1.5     0.00042307      -322.3477883289 -1.66E-03

 *** WARNING in fm/cp_fm_elpa.F:521 :: Setting real_kernel for ELPA failed ***

     5 Broy./Diag. 0.40E+00    1.5     0.00011260      -322.3486611177 -8.73E-04

 *** WARNING in fm/cp_fm_elpa.F:521 :: Setting real_kernel for ELPA failed ***

     6 Broy./Diag. 0.40E+00    1.5     0.00002083      -322.3480835680  5.78E-04

 *** WARNING in fm/cp_fm_elpa.F:521 :: Setting real_kernel for ELPA failed ***

     7 Broy./Diag. 0.40E+00    1.6     0.00000719      -322.3480271100  5.65E-05

 *** WARNING in fm/cp_fm_elpa.F:521 :: Setting real_kernel for ELPA failed ***

     8 Broy./Diag. 0.40E+00    1.6     0.00001202      -322.3480573655 -3.03E-05

 *** WARNING in fm/cp_fm_elpa.F:521 :: Setting real_kernel for ELPA failed ***

     9 Broy./Diag. 0.40E+00    1.6     0.00000598      -322.3480708825 -1.35E-05

 *** WARNING in fm/cp_fm_elpa.F:521 :: Setting real_kernel for ELPA failed ***

    10 Broy./Diag. 0.40E+00    1.7     0.00000705      -322.3480340497  3.68E-05

 *** WARNING in fm/cp_fm_elpa.F:521 :: Setting real_kernel for ELPA failed ***

    11 Broy./Diag. 0.40E+00    1.7     0.00000407      -322.3480160161  1.80E-05

 *** WARNING in fm/cp_fm_elpa.F:521 :: Setting real_kernel for ELPA failed ***

    12 Broy./Diag. 0.40E+00    1.7     0.00000238      -322.3480124373  3.58E-06

 *** WARNING in fm/cp_fm_elpa.F:521 :: Setting real_kernel for ELPA failed ***

    13 Broy./Diag. 0.40E+00    1.7     0.00000126      -322.3480106010  1.84E-06

 *** WARNING in fm/cp_fm_elpa.F:521 :: Setting real_kernel for ELPA failed ***

    14 Broy./Diag. 0.40E+00    1.7     0.00000072      -322.3480041012  6.50E-06

  *** SCF run converged in    14 steps ***


  Electronic density on regular grids:       -217.9999999988        0.0000000012
  Core density on regular grids:              219.9999999998       -0.0000000002
  Total charge density on r-space grids:        2.0000000010
  Total charge density g-space grids:           2.0000000010

  Overlap energy of the core charge distribution:               0.00001406763933
  Self energy of the core charge distribution:               -766.83425392616255
  Core Hamiltonian energy:                                    231.16615660485365
  Hartree energy:                                             308.91432344436885
  Exchange-correlation energy:                                -95.47608383139941
  Dispersion energy:                                           -0.11816046049507
  Electronic entropic energy:                                  -0.00000000000000
  Fermi energy:                                                -0.26800245248388

  Total energy:                                              -322.34800410119522

 ENERGY| Total FORCE_EVAL ( QS ) energy [hartree]           -322.348010589787521

 OPT| **************************************************************************
 OPT| Step number                                                             28
 OPT| Optimization method                                                   BFGS
 OPT| Total energy [hartree]                                     -322.3480105898
 OPT| Effective energy change [hartree]                            -0.0001126444
 OPT| Predicted energy change [hartree]                            -0.0001042958
 OPT| Scaling factor                                                0.9400567948
 OPT| Step size                                                     0.0347058142
 OPT| Trust radius                                                  0.3779452266
 OPT| Decrease in energy                                                     YES
 OPT| Used time [s]                                                       23.840
 OPT|
 OPT| Maximum step size                                             0.0347058142
 OPT| Convergence limit for maximum step size                       0.0030000000
 OPT| Maximum step size is converged                                          NO
 OPT|
 OPT| RMS step size                                                 0.0081943337
 OPT| Convergence limit for RMS step size                           0.0015000000
 OPT| RMS step size is converged                                              NO
 OPT|
 OPT| Maximum gradient                                              0.0021198391
 OPT| Convergence limit for maximum gradient                        0.0004500000
 OPT| Maximum gradient is converged                                           NO
 OPT|
 OPT| RMS gradient                                                  0.0004137667
 OPT| Convergence limit for RMS gradient                            0.0003000000
 OPT| RMS gradient is converged                                               NO
 OPT| **************************************************************************
 OPT| Estimated peak process memory after this step [MiB]                    716

 --------------------------
 OPTIMIZATION STEP:     29
 --------------------------

 *** WARNING in fm/cp_fm_elpa.F:521 :: Setting real_kernel for ELPA failed ***


 Number of electrons:                                                        218
 Number of occupied orbitals:                                                109
 Number of molecular orbitals:                                               146

 Number of orbital functions:                                                723
 Number of independent orbital functions:                                    723

 *** WARNING in fm/cp_fm_elpa.F:521 :: Setting real_kernel for ELPA failed ***


 Extrapolation method: ASPC


 SCF WAVEFUNCTION OPTIMIZATION

  Step     Update method      Time    Convergence         Total energy    Change
  ------------------------------------------------------------------------------

 *** WARNING in fm/cp_fm_elpa.F:521 :: Setting real_kernel for ELPA failed ***

     1 Broy./Diag. 0.40E+00    1.1     0.00695793      -322.3473497959 -3.22E+02

 *** WARNING in fm/cp_fm_elpa.F:521 :: Setting real_kernel for ELPA failed ***

     2 Broy./Diag. 0.40E+00    1.5     0.00121426      -322.3495030335 -2.15E-03

 *** WARNING in fm/cp_fm_elpa.F:521 :: Setting real_kernel for ELPA failed ***

     3 Broy./Diag. 0.40E+00    1.5     0.00046003      -322.3495476374 -4.46E-05

 *** WARNING in fm/cp_fm_elpa.F:521 :: Setting real_kernel for ELPA failed ***

     4 Broy./Diag. 0.40E+00    1.5     0.00037905      -322.3478993846  1.65E-03

 *** WARNING in fm/cp_fm_elpa.F:521 :: Setting real_kernel for ELPA failed ***

     5 Broy./Diag. 0.40E+00    1.5     0.00009717      -322.3482960040 -3.97E-04

 *** WARNING in fm/cp_fm_elpa.F:521 :: Setting real_kernel for ELPA failed ***

     6 Broy./Diag. 0.40E+00    1.5     0.00003182      -322.3482563604  3.96E-05

 *** WARNING in fm/cp_fm_elpa.F:521 :: Setting real_kernel for ELPA failed ***

     7 Broy./Diag. 0.40E+00    1.6     0.00000930      -322.3482896183 -3.33E-05

 *** WARNING in fm/cp_fm_elpa.F:521 :: Setting real_kernel for ELPA failed ***

     8 Broy./Diag. 0.40E+00    1.6     0.00000855      -322.3482437601  4.59E-05

 *** WARNING in fm/cp_fm_elpa.F:521 :: Setting real_kernel for ELPA failed ***

     9 Broy./Diag. 0.40E+00    1.6     0.00000453      -322.3481803844  6.34E-05

 *** WARNING in fm/cp_fm_elpa.F:521 :: Setting real_kernel for ELPA failed ***

    10 Broy./Diag. 0.40E+00    1.7     0.00000310      -322.3481341173  4.63E-05

 *** WARNING in fm/cp_fm_elpa.F:521 :: Setting real_kernel for ELPA failed ***

    11 Broy./Diag. 0.40E+00    1.7     0.00000158      -322.3481194919  1.46E-05

 *** WARNING in fm/cp_fm_elpa.F:521 :: Setting real_kernel for ELPA failed ***

    12 Broy./Diag. 0.40E+00    1.7     0.00000124      -322.3481033309  1.62E-05

 *** WARNING in fm/cp_fm_elpa.F:521 :: Setting real_kernel for ELPA failed ***

    13 Broy./Diag. 0.40E+00    1.7     0.00000106      -322.3480978001  5.53E-06

 *** WARNING in fm/cp_fm_elpa.F:521 :: Setting real_kernel for ELPA failed ***

    14 Broy./Diag. 0.40E+00    1.7     0.00000064      -322.3480919699  5.83E-06

  *** SCF run converged in    14 steps ***


  Electronic density on regular grids:       -217.9999999988        0.0000000012
  Core density on regular grids:              219.9999999998       -0.0000000002
  Total charge density on r-space grids:        2.0000000010
  Total charge density g-space grids:           2.0000000010

  Overlap energy of the core charge distribution:               0.00001410540791
  Self energy of the core charge distribution:               -766.83425392616255
  Core Hamiltonian energy:                                    231.17203135860663
  Hartree energy:                                             308.91013105957188
  Exchange-correlation energy:                                -95.47787420292644
  Dispersion energy:                                           -0.11814036438453
  Electronic entropic energy:                                  -0.00000000000000
  Fermi energy:                                                -0.26802543681051

  Total energy:                                              -322.34809196988709

 ENERGY| Total FORCE_EVAL ( QS ) energy [hartree]           -322.348091847741443

 OPT| **************************************************************************
 OPT| Step number                                                             29
 OPT| Optimization method                                                   BFGS
 OPT| Total energy [hartree]                                     -322.3480918477
 OPT| Effective energy change [hartree]                            -0.0000812580
 OPT| Predicted energy change [hartree]                            -0.0000691709
 OPT| Scaling factor                                                0.9400567948
 OPT| Step size                                                     0.0335455102
 OPT| Trust radius                                                  0.3779452266
 OPT| Decrease in energy                                                     YES
 OPT| Used time [s]                                                       23.809
 OPT|
 OPT| Maximum step size                                             0.0335455102
 OPT| Convergence limit for maximum step size                       0.0030000000
 OPT| Maximum step size is converged                                          NO
 OPT|
 OPT| RMS step size                                                 0.0075541449
 OPT| Convergence limit for RMS step size                           0.0015000000
 OPT| RMS step size is converged                                              NO
 OPT|
 OPT| Maximum gradient                                              0.0015460267
 OPT| Convergence limit for maximum gradient                        0.0004500000
 OPT| Maximum gradient is converged                                           NO
 OPT|
 OPT| RMS gradient                                                  0.0003459564
 OPT| Convergence limit for RMS gradient                            0.0003000000
 OPT| RMS gradient is converged                                               NO
 OPT| **************************************************************************
 OPT| Estimated peak process memory after this step [MiB]                    716

 --------------------------
 OPTIMIZATION STEP:     30
 --------------------------

 *** WARNING in fm/cp_fm_elpa.F:521 :: Setting real_kernel for ELPA failed ***


 Number of electrons:                                                        218
 Number of occupied orbitals:                                                109
 Number of molecular orbitals:                                               146

 Number of orbital functions:                                                723
 Number of independent orbital functions:                                    723

 *** WARNING in fm/cp_fm_elpa.F:521 :: Setting real_kernel for ELPA failed ***


 Extrapolation method: ASPC


 SCF WAVEFUNCTION OPTIMIZATION

  Step     Update method      Time    Convergence         Total energy    Change
  ------------------------------------------------------------------------------

 *** WARNING in fm/cp_fm_elpa.F:521 :: Setting real_kernel for ELPA failed ***

     1 Broy./Diag. 0.40E+00    1.1     0.01155104      -322.3473060519 -3.22E+02

 *** WARNING in fm/cp_fm_elpa.F:521 :: Setting real_kernel for ELPA failed ***

     2 Broy./Diag. 0.40E+00    1.4     0.00228634      -322.3432857675  4.02E-03

 *** WARNING in fm/cp_fm_elpa.F:521 :: Setting real_kernel for ELPA failed ***

     3 Broy./Diag. 0.40E+00    1.5     0.00058990      -322.3489203663 -5.63E-03

 *** WARNING in fm/cp_fm_elpa.F:521 :: Setting real_kernel for ELPA failed ***

     4 Broy./Diag. 0.40E+00    1.5     0.00046857      -322.3488032378  1.17E-04

 *** WARNING in fm/cp_fm_elpa.F:521 :: Setting real_kernel for ELPA failed ***

     5 Broy./Diag. 0.40E+00    1.5     0.00012558      -322.3491673512 -3.64E-04

 *** WARNING in fm/cp_fm_elpa.F:521 :: Setting real_kernel for ELPA failed ***

     6 Broy./Diag. 0.40E+00    1.5     0.00003861      -322.3485441323  6.23E-04

 *** WARNING in fm/cp_fm_elpa.F:521 :: Setting real_kernel for ELPA failed ***

     7 Broy./Diag. 0.40E+00    1.6     0.00002005      -322.3484822873  6.18E-05

 *** WARNING in fm/cp_fm_elpa.F:521 :: Setting real_kernel for ELPA failed ***

     8 Broy./Diag. 0.40E+00    1.6     0.00002065      -322.3483828692  9.94E-05

 *** WARNING in fm/cp_fm_elpa.F:521 :: Setting real_kernel for ELPA failed ***

     9 Broy./Diag. 0.40E+00    1.6     0.00000756      -322.3482732666  1.10E-04

 *** WARNING in fm/cp_fm_elpa.F:521 :: Setting real_kernel for ELPA failed ***

    10 Broy./Diag. 0.40E+00    1.7     0.00000924      -322.3481774151  9.59E-05

 *** WARNING in fm/cp_fm_elpa.F:521 :: Setting real_kernel for ELPA failed ***

    11 Broy./Diag. 0.40E+00    1.7     0.00000365      -322.3481496927  2.77E-05

 *** WARNING in fm/cp_fm_elpa.F:521 :: Setting real_kernel for ELPA failed ***

    12 Broy./Diag. 0.40E+00    1.7     0.00000291      -322.3481557128 -6.02E-06

 *** WARNING in fm/cp_fm_elpa.F:521 :: Setting real_kernel for ELPA failed ***

    13 Broy./Diag. 0.40E+00    1.7     0.00000144      -322.3481639216 -8.21E-06

 *** WARNING in fm/cp_fm_elpa.F:521 :: Setting real_kernel for ELPA failed ***

    14 Broy./Diag. 0.40E+00    1.7     0.00000112      -322.3481570453  6.88E-06

 *** WARNING in fm/cp_fm_elpa.F:521 :: Setting real_kernel for ELPA failed ***

    15 Broy./Diag. 0.40E+00    1.7     0.00000087      -322.3481584006 -1.36E-06

  *** SCF run converged in    15 steps ***


  Electronic density on regular grids:       -217.9999999988        0.0000000012
  Core density on regular grids:              219.9999999998       -0.0000000002
  Total charge density on r-space grids:        2.0000000010
  Total charge density g-space grids:           2.0000000010

  Overlap energy of the core charge distribution:               0.00001410197273
  Self energy of the core charge distribution:               -766.83425392616255
  Core Hamiltonian energy:                                    231.16495060445746
  Hartree energy:                                             308.91512249619120
  Exchange-correlation energy:                                -95.47592565773812
  Dispersion energy:                                           -0.11806601934231
  Electronic entropic energy:                                  -0.00000000000000
  Fermi energy:                                                -0.26794266321076

  Total energy:                                              -322.34815840062163

 ENERGY| Total FORCE_EVAL ( QS ) energy [hartree]           -322.348157784542707

 OPT| **************************************************************************
 OPT| Step number                                                             30
 OPT| Optimization method                                                   BFGS
 OPT| Total energy [hartree]                                     -322.3481577845
 OPT| Effective energy change [hartree]                            -0.0000659368
 OPT| Predicted energy change [hartree]                            -0.0000568683
 OPT| Scaling factor                                                0.9400567948
 OPT| Step size                                                     0.0870344586
 OPT| Trust radius                                                  0.3779452266
 OPT| Decrease in energy                                                     YES
 OPT| Used time [s]                                                       25.460
 OPT|
 OPT| Maximum step size                                             0.0870344586
 OPT| Convergence limit for maximum step size                       0.0030000000
 OPT| Maximum step size is converged                                          NO
 OPT|
 OPT| RMS step size                                                 0.0122646919
 OPT| Convergence limit for RMS step size                           0.0015000000
 OPT| RMS step size is converged                                              NO
 OPT|
 OPT| Maximum gradient                                              0.0019818870
 OPT| Convergence limit for maximum gradient                        0.0004500000
 OPT| Maximum gradient is converged                                           NO
 OPT|
 OPT| RMS gradient                                                  0.0003388879
 OPT| Convergence limit for RMS gradient                            0.0003000000
 OPT| RMS gradient is converged                                               NO
 OPT| **************************************************************************
 OPT| Estimated peak process memory after this step [MiB]                    716

 --------------------------
 OPTIMIZATION STEP:     31
 --------------------------

 *** WARNING in fm/cp_fm_elpa.F:521 :: Setting real_kernel for ELPA failed ***


 Number of electrons:                                                        218
 Number of occupied orbitals:                                                109
 Number of molecular orbitals:                                               146

 Number of orbital functions:                                                723
 Number of independent orbital functions:                                    723

 *** WARNING in fm/cp_fm_elpa.F:521 :: Setting real_kernel for ELPA failed ***


 Extrapolation method: ASPC


 SCF WAVEFUNCTION OPTIMIZATION

  Step     Update method      Time    Convergence         Total energy    Change
  ------------------------------------------------------------------------------

 *** WARNING in fm/cp_fm_elpa.F:521 :: Setting real_kernel for ELPA failed ***

     1 Broy./Diag. 0.40E+00    1.1     0.00941191      -322.3476210254 -3.22E+02

 *** WARNING in fm/cp_fm_elpa.F:521 :: Setting real_kernel for ELPA failed ***

     2 Broy./Diag. 0.40E+00    1.5     0.00223151      -322.3366430857  1.10E-02

 *** WARNING in fm/cp_fm_elpa.F:521 :: Setting real_kernel for ELPA failed ***

     3 Broy./Diag. 0.40E+00    1.5     0.00039519      -322.3460798589 -9.44E-03

 *** WARNING in fm/cp_fm_elpa.F:521 :: Setting real_kernel for ELPA failed ***

     4 Broy./Diag. 0.40E+00    1.5     0.00023529      -322.3483322675 -2.25E-03

 *** WARNING in fm/cp_fm_elpa.F:521 :: Setting real_kernel for ELPA failed ***

     5 Broy./Diag. 0.40E+00    1.5     0.00009526      -322.3488912461 -5.59E-04

 *** WARNING in fm/cp_fm_elpa.F:521 :: Setting real_kernel for ELPA failed ***

     6 Broy./Diag. 0.40E+00    1.5     0.00003747      -322.3484285039  4.63E-04

 *** WARNING in fm/cp_fm_elpa.F:521 :: Setting real_kernel for ELPA failed ***

     7 Broy./Diag. 0.40E+00    1.6     0.00001705      -322.3483806520  4.79E-05

 *** WARNING in fm/cp_fm_elpa.F:521 :: Setting real_kernel for ELPA failed ***

     8 Broy./Diag. 0.40E+00    1.6     0.00001500      -322.3483278572  5.28E-05

 *** WARNING in fm/cp_fm_elpa.F:521 :: Setting real_kernel for ELPA failed ***

     9 Broy./Diag. 0.40E+00    1.6     0.00000580      -322.3482914065  3.65E-05

 *** WARNING in fm/cp_fm_elpa.F:521 :: Setting real_kernel for ELPA failed ***

    10 Broy./Diag. 0.40E+00    1.7     0.00000469      -322.3482415971  4.98E-05

 *** WARNING in fm/cp_fm_elpa.F:521 :: Setting real_kernel for ELPA failed ***

    11 Broy./Diag. 0.40E+00    1.7     0.00000318      -322.3482201452  2.15E-05

 *** WARNING in fm/cp_fm_elpa.F:521 :: Setting real_kernel for ELPA failed ***

    12 Broy./Diag. 0.40E+00    1.7     0.00000222      -322.3482099944  1.02E-05

 *** WARNING in fm/cp_fm_elpa.F:521 :: Setting real_kernel for ELPA failed ***

    13 Broy./Diag. 0.40E+00    1.7     0.00000161      -322.3482064950  3.50E-06

 *** WARNING in fm/cp_fm_elpa.F:521 :: Setting real_kernel for ELPA failed ***

    14 Broy./Diag. 0.40E+00    1.7     0.00000109      -322.3482022086  4.29E-06

 *** WARNING in fm/cp_fm_elpa.F:521 :: Setting real_kernel for ELPA failed ***

    15 Broy./Diag. 0.40E+00    1.7     0.00000100      -322.3482048570 -2.65E-06

  *** SCF run converged in    15 steps ***


  Electronic density on regular grids:       -217.9999999988        0.0000000012
  Core density on regular grids:              219.9999999998       -0.0000000002
  Total charge density on r-space grids:        2.0000000010
  Total charge density g-space grids:           2.0000000010

  Overlap energy of the core charge distribution:               0.00001413418531
  Self energy of the core charge distribution:               -766.83425392616255
  Core Hamiltonian energy:                                    231.17421141518309
  Hartree energy:                                             308.90822828943908
  Exchange-correlation energy:                                -95.47837001892688
  Dispersion energy:                                           -0.11803475068336
  Electronic entropic energy:                                  -0.00000000000000
  Fermi energy:                                                -0.26774038212308

  Total energy:                                              -322.34820485696525

 ENERGY| Total FORCE_EVAL ( QS ) energy [hartree]           -322.348205967273884

 OPT| **************************************************************************
 OPT| Step number                                                             31
 OPT| Optimization method                                                   BFGS
 OPT| Total energy [hartree]                                     -322.3482059673
 OPT| Effective energy change [hartree]                            -0.0000481827
 OPT| Predicted energy change [hartree]                            -0.0000442908
 OPT| Scaling factor                                                0.9400567948
 OPT| Step size                                                     0.0326457426
 OPT| Trust radius                                                  0.3779452266
 OPT| Decrease in energy                                                     YES
 OPT| Used time [s]                                                       25.496
 OPT|
 OPT| Maximum step size                                             0.0326457426
 OPT| Convergence limit for maximum step size                       0.0030000000
 OPT| Maximum step size is converged                                          NO
 OPT|
 OPT| RMS step size                                                 0.0053845802
 OPT| Convergence limit for RMS step size                           0.0015000000
 OPT| RMS step size is converged                                              NO
 OPT|
 OPT| Maximum gradient                                              0.0011437069
 OPT| Convergence limit for maximum gradient                        0.0004500000
 OPT| Maximum gradient is converged                                           NO
 OPT|
 OPT| RMS gradient                                                  0.0002910452
 OPT| Convergence limit for RMS gradient                            0.0003000000
 OPT| RMS gradient is converged                                              YES
 OPT| **************************************************************************
 OPT| Estimated peak process memory after this step [MiB]                    716

 --------------------------
 OPTIMIZATION STEP:     32
 --------------------------

 *** WARNING in fm/cp_fm_elpa.F:521 :: Setting real_kernel for ELPA failed ***


 Number of electrons:                                                        218
 Number of occupied orbitals:                                                109
 Number of molecular orbitals:                                               146

 Number of orbital functions:                                                723
 Number of independent orbital functions:                                    723

 *** WARNING in fm/cp_fm_elpa.F:521 :: Setting real_kernel for ELPA failed ***


 Extrapolation method: ASPC


 SCF WAVEFUNCTION OPTIMIZATION

  Step     Update method      Time    Convergence         Total energy    Change
  ------------------------------------------------------------------------------

 *** WARNING in fm/cp_fm_elpa.F:521 :: Setting real_kernel for ELPA failed ***

     1 Broy./Diag. 0.40E+00    1.1     0.01068119      -322.3478228320 -3.22E+02

 *** WARNING in fm/cp_fm_elpa.F:521 :: Setting real_kernel for ELPA failed ***

     2 Broy./Diag. 0.40E+00    1.5     0.00190327      -322.3559131599 -8.09E-03

 *** WARNING in fm/cp_fm_elpa.F:521 :: Setting real_kernel for ELPA failed ***

     3 Broy./Diag. 0.40E+00    1.5     0.00048908      -322.3505459402  5.37E-03

 *** WARNING in fm/cp_fm_elpa.F:521 :: Setting real_kernel for ELPA failed ***

     4 Broy./Diag. 0.40E+00    1.5     0.00024337      -322.3490947808  1.45E-03

 *** WARNING in fm/cp_fm_elpa.F:521 :: Setting real_kernel for ELPA failed ***

     5 Broy./Diag. 0.40E+00    1.5     0.00007268      -322.3484788461  6.16E-04

 *** WARNING in fm/cp_fm_elpa.F:521 :: Setting real_kernel for ELPA failed ***

     6 Broy./Diag. 0.40E+00    1.5     0.00001686      -322.3484857761 -6.93E-06

 *** WARNING in fm/cp_fm_elpa.F:521 :: Setting real_kernel for ELPA failed ***

     7 Broy./Diag. 0.40E+00    1.6     0.00001300      -322.3484682889  1.75E-05

 *** WARNING in fm/cp_fm_elpa.F:521 :: Setting real_kernel for ELPA failed ***

     8 Broy./Diag. 0.40E+00    1.6     0.00001302      -322.3484023023  6.60E-05

 *** WARNING in fm/cp_fm_elpa.F:521 :: Setting real_kernel for ELPA failed ***

     9 Broy./Diag. 0.40E+00    1.6     0.00000460      -322.3483335309  6.88E-05

 *** WARNING in fm/cp_fm_elpa.F:521 :: Setting real_kernel for ELPA failed ***

    10 Broy./Diag. 0.40E+00    1.7     0.00000463      -322.3482768026  5.67E-05

 *** WARNING in fm/cp_fm_elpa.F:521 :: Setting real_kernel for ELPA failed ***

    11 Broy./Diag. 0.40E+00    1.7     0.00000261      -322.3482604845  1.63E-05

 *** WARNING in fm/cp_fm_elpa.F:521 :: Setting real_kernel for ELPA failed ***

    12 Broy./Diag. 0.40E+00    1.7     0.00000161      -322.3482548032  5.68E-06

 *** WARNING in fm/cp_fm_elpa.F:521 :: Setting real_kernel for ELPA failed ***

    13 Broy./Diag. 0.40E+00    1.7     0.00000124      -322.3482565335 -1.73E-06

 *** WARNING in fm/cp_fm_elpa.F:521 :: Setting real_kernel for ELPA failed ***

    14 Broy./Diag. 0.40E+00    1.7     0.00000072      -322.3482539407  2.59E-06

  *** SCF run converged in    14 steps ***


  Electronic density on regular grids:       -217.9999999988        0.0000000012
  Core density on regular grids:              219.9999999998       -0.0000000002
  Total charge density on r-space grids:        2.0000000010
  Total charge density g-space grids:           2.0000000010

  Overlap energy of the core charge distribution:               0.00001414625866
  Self energy of the core charge distribution:               -766.83425392616255
  Core Hamiltonian energy:                                    231.17769399423761
  Hartree energy:                                             308.90558064291486
  Exchange-correlation energy:                                -95.47928500908270
  Dispersion energy:                                           -0.11800378882215
  Electronic entropic energy:                                  -0.00000000000000
  Fermi energy:                                                -0.26768018344303

  Total energy:                                              -322.34825394065621

 ENERGY| Total FORCE_EVAL ( QS ) energy [hartree]           -322.348251141831554

 OPT| **************************************************************************
 OPT| Step number                                                             32
 OPT| Optimization method                                                   BFGS
 OPT| Total energy [hartree]                                     -322.3482511418
 OPT| Effective energy change [hartree]                            -0.0000451746
 OPT| Predicted energy change [hartree]                            -0.0000365648
 OPT| Scaling factor                                                0.9400567948
 OPT| Step size                                                     0.0240941635
 OPT| Trust radius                                                  0.3779452266
 OPT| Decrease in energy                                                     YES
 OPT| Used time [s]                                                       23.793
 OPT|
 OPT| Maximum step size                                             0.0240941635
 OPT| Convergence limit for maximum step size                       0.0030000000
 OPT| Maximum step size is converged                                          NO
 OPT|
 OPT| RMS step size                                                 0.0048890494
 OPT| Convergence limit for RMS step size                           0.0015000000
 OPT| RMS step size is converged                                              NO
 OPT|
 OPT| Maximum gradient                                              0.0013875890
 OPT| Convergence limit for maximum gradient                        0.0004500000
 OPT| Maximum gradient is converged                                           NO
 OPT|
 OPT| RMS gradient                                                  0.0002960649
 OPT| Convergence limit for RMS gradient                            0.0003000000
 OPT| RMS gradient is converged                                              YES
 OPT| **************************************************************************
 OPT| Estimated peak process memory after this step [MiB]                    716

 --------------------------
 OPTIMIZATION STEP:     33
 --------------------------

 *** WARNING in fm/cp_fm_elpa.F:521 :: Setting real_kernel for ELPA failed ***


 Number of electrons:                                                        218
 Number of occupied orbitals:                                                109
 Number of molecular orbitals:                                               146

 Number of orbital functions:                                                723
 Number of independent orbital functions:                                    723

 *** WARNING in fm/cp_fm_elpa.F:521 :: Setting real_kernel for ELPA failed ***


 Extrapolation method: ASPC


 SCF WAVEFUNCTION OPTIMIZATION

  Step     Update method      Time    Convergence         Total energy    Change
  ------------------------------------------------------------------------------

 *** WARNING in fm/cp_fm_elpa.F:521 :: Setting real_kernel for ELPA failed ***

     1 Broy./Diag. 0.40E+00    1.1     0.00932922      -322.3478077370 -3.22E+02

 *** WARNING in fm/cp_fm_elpa.F:521 :: Setting real_kernel for ELPA failed ***

     2 Broy./Diag. 0.40E+00    1.5     0.00097822      -322.3383727570  9.43E-03

 *** WARNING in fm/cp_fm_elpa.F:521 :: Setting real_kernel for ELPA failed ***

     3 Broy./Diag. 0.40E+00    1.5     0.00044621      -322.3480999635 -9.73E-03

 *** WARNING in fm/cp_fm_elpa.F:521 :: Setting real_kernel for ELPA failed ***

     4 Broy./Diag. 0.40E+00    1.5     0.00025592      -322.3490551660 -9.55E-04

 *** WARNING in fm/cp_fm_elpa.F:521 :: Setting real_kernel for ELPA failed ***

     5 Broy./Diag. 0.40E+00    1.5     0.00005788      -322.3492883834 -2.33E-04

 *** WARNING in fm/cp_fm_elpa.F:521 :: Setting real_kernel for ELPA failed ***

     6 Broy./Diag. 0.40E+00    1.5     0.00003517      -322.3486524606  6.36E-04

 *** WARNING in fm/cp_fm_elpa.F:521 :: Setting real_kernel for ELPA failed ***

     7 Broy./Diag. 0.40E+00    1.6     0.00001600      -322.3486140030  3.85E-05

 *** WARNING in fm/cp_fm_elpa.F:521 :: Setting real_kernel for ELPA failed ***

     8 Broy./Diag. 0.40E+00    1.6     0.00001691      -322.3485374787  7.65E-05

 *** WARNING in fm/cp_fm_elpa.F:521 :: Setting real_kernel for ELPA failed ***

     9 Broy./Diag. 0.40E+00    1.6     0.00000753      -322.3484489783  8.85E-05

 *** WARNING in fm/cp_fm_elpa.F:521 :: Setting real_kernel for ELPA failed ***

    10 Broy./Diag. 0.40E+00    1.7     0.00000614      -322.3483492432  9.97E-05

 *** WARNING in fm/cp_fm_elpa.F:521 :: Setting real_kernel for ELPA failed ***

    11 Broy./Diag. 0.40E+00    1.7     0.00000287      -322.3483156334  3.36E-05

 *** WARNING in fm/cp_fm_elpa.F:521 :: Setting real_kernel for ELPA failed ***

    12 Broy./Diag. 0.40E+00    1.8     0.00000156      -322.3483159683 -3.35E-07

 *** WARNING in fm/cp_fm_elpa.F:521 :: Setting real_kernel for ELPA failed ***

    13 Broy./Diag. 0.40E+00    1.8     0.00000085      -322.3483152768  6.91E-07

  *** SCF run converged in    13 steps ***


  Electronic density on regular grids:       -217.9999999988        0.0000000012
  Core density on regular grids:              219.9999999998       -0.0000000002
  Total charge density on r-space grids:        2.0000000010
  Total charge density g-space grids:           2.0000000010

  Overlap energy of the core charge distribution:               0.00001411985484
  Self energy of the core charge distribution:               -766.83425392616255
  Core Hamiltonian energy:                                    231.16960815125549
  Hartree energy:                                             308.91102929322619
  Exchange-correlation energy:                                -95.47678243940635
  Dispersion energy:                                           -0.11793047557388
  Electronic entropic energy:                                  -0.00000000000000
  Fermi energy:                                                -0.26742547737778

  Total energy:                                              -322.34831527680620

 ENERGY| Total FORCE_EVAL ( QS ) energy [hartree]           -322.348314866114606

 OPT| **************************************************************************
 OPT| Step number                                                             33
 OPT| Optimization method                                                   BFGS
 OPT| Total energy [hartree]                                     -322.3483148661
 OPT| Effective energy change [hartree]                            -0.0000637243
 OPT| Predicted energy change [hartree]                            -0.0000451119
 OPT| Scaling factor                                                0.9400567948
 OPT| Step size                                                     0.0714254144
 OPT| Trust radius                                                  0.3779452266
 OPT| Decrease in energy                                                     YES
 OPT| Used time [s]                                                       22.446
 OPT|
 OPT| Maximum step size                                             0.0714254144
 OPT| Convergence limit for maximum step size                       0.0030000000
 OPT| Maximum step size is converged                                          NO
 OPT|
 OPT| RMS step size                                                 0.0110358178
 OPT| Convergence limit for RMS step size                           0.0015000000
 OPT| RMS step size is converged                                              NO
 OPT|
 OPT| Maximum gradient                                              0.0012284925
 OPT| Convergence limit for maximum gradient                        0.0004500000
 OPT| Maximum gradient is converged                                           NO
 OPT|
 OPT| RMS gradient                                                  0.0003258550
 OPT| Convergence limit for RMS gradient                            0.0003000000
 OPT| RMS gradient is converged                                               NO
 OPT| **************************************************************************
 OPT| Estimated peak process memory after this step [MiB]                    716

 --------------------------
 OPTIMIZATION STEP:     34
 --------------------------

 *** WARNING in fm/cp_fm_elpa.F:521 :: Setting real_kernel for ELPA failed ***


 Number of electrons:                                                        218
 Number of occupied orbitals:                                                109
 Number of molecular orbitals:                                               146

 Number of orbital functions:                                                723
 Number of independent orbital functions:                                    723

 *** WARNING in fm/cp_fm_elpa.F:521 :: Setting real_kernel for ELPA failed ***


 Extrapolation method: ASPC


 SCF WAVEFUNCTION OPTIMIZATION

  Step     Update method      Time    Convergence         Total energy    Change
  ------------------------------------------------------------------------------

 *** WARNING in fm/cp_fm_elpa.F:521 :: Setting real_kernel for ELPA failed ***

     1 Broy./Diag. 0.40E+00    1.1     0.03549029      -322.3443830748 -3.22E+02

 *** WARNING in fm/cp_fm_elpa.F:521 :: Setting real_kernel for ELPA failed ***

     2 Broy./Diag. 0.40E+00    1.5     0.00398498      -322.3235957385  2.08E-02

 *** WARNING in fm/cp_fm_elpa.F:521 :: Setting real_kernel for ELPA failed ***

     3 Broy./Diag. 0.40E+00    1.6     0.00146252      -322.3485572971 -2.50E-02

 *** WARNING in fm/cp_fm_elpa.F:521 :: Setting real_kernel for ELPA failed ***

     4 Broy./Diag. 0.40E+00    1.6     0.00060153      -322.3507128548 -2.16E-03

 *** WARNING in fm/cp_fm_elpa.F:521 :: Setting real_kernel for ELPA failed ***

     5 Broy./Diag. 0.40E+00    1.6     0.00022831      -322.3510856562 -3.73E-04

 *** WARNING in fm/cp_fm_elpa.F:521 :: Setting real_kernel for ELPA failed ***

     6 Broy./Diag. 0.40E+00    1.6     0.00011281      -322.3493102437  1.78E-03

 *** WARNING in fm/cp_fm_elpa.F:521 :: Setting real_kernel for ELPA failed ***

     7 Broy./Diag. 0.40E+00    1.7     0.00004504      -322.3492800569  3.02E-05

 *** WARNING in fm/cp_fm_elpa.F:521 :: Setting real_kernel for ELPA failed ***

     8 Broy./Diag. 0.40E+00    1.7     0.00005014      -322.3490193295  2.61E-04

 *** WARNING in fm/cp_fm_elpa.F:521 :: Setting real_kernel for ELPA failed ***

     9 Broy./Diag. 0.40E+00    1.7     0.00002015      -322.3487414365  2.78E-04

 *** WARNING in fm/cp_fm_elpa.F:521 :: Setting real_kernel for ELPA failed ***

    10 Broy./Diag. 0.40E+00    1.8     0.00001796      -322.3485278068  2.14E-04

 *** WARNING in fm/cp_fm_elpa.F:521 :: Setting real_kernel for ELPA failed ***

    11 Broy./Diag. 0.40E+00    1.8     0.00000794      -322.3484542754  7.35E-05

 *** WARNING in fm/cp_fm_elpa.F:521 :: Setting real_kernel for ELPA failed ***

    12 Broy./Diag. 0.40E+00    1.8     0.00000571      -322.3484677889 -1.35E-05

 *** WARNING in fm/cp_fm_elpa.F:521 :: Setting real_kernel for ELPA failed ***

    13 Broy./Diag. 0.40E+00    1.8     0.00000318      -322.3484609541  6.83E-06

 *** WARNING in fm/cp_fm_elpa.F:521 :: Setting real_kernel for ELPA failed ***

    14 Broy./Diag. 0.40E+00    1.8     0.00000384      -322.3484441831  1.68E-05

 *** WARNING in fm/cp_fm_elpa.F:521 :: Setting real_kernel for ELPA failed ***

    15 Broy./Diag. 0.40E+00    1.8     0.00000285      -322.3484499610 -5.78E-06

 *** WARNING in fm/cp_fm_elpa.F:521 :: Setting real_kernel for ELPA failed ***

    16 Broy./Diag. 0.40E+00    1.8     0.00000144      -322.3484499573  3.72E-09

 *** WARNING in fm/cp_fm_elpa.F:521 :: Setting real_kernel for ELPA failed ***

    17 Broy./Diag. 0.40E+00    1.8     0.00000101      -322.3484485447  1.41E-06

 *** WARNING in fm/cp_fm_elpa.F:521 :: Setting real_kernel for ELPA failed ***

    18 Broy./Diag. 0.40E+00    1.8     0.00000057      -322.3484446060  3.94E-06

  *** SCF run converged in    18 steps ***


  Electronic density on regular grids:       -217.9999999988        0.0000000012
  Core density on regular grids:              219.9999999998       -0.0000000002
  Total charge density on r-space grids:        2.0000000010
  Total charge density g-space grids:           2.0000000010

  Overlap energy of the core charge distribution:               0.00001399914962
  Self energy of the core charge distribution:               -766.83425392616255
  Core Hamiltonian energy:                                    231.13242657636340
  Hartree energy:                                             308.93651742832003
  Exchange-correlation energy:                                -95.46545573366006
  Dispersion energy:                                           -0.11769295002530
  Electronic entropic energy:                                  -0.00000000000000
  Fermi energy:                                                -0.26669417891995

  Total energy:                                              -322.34844460601488

 ENERGY| Total FORCE_EVAL ( QS ) energy [hartree]           -322.348446721719199

 OPT| **************************************************************************
 OPT| Step number                                                             34
 OPT| Optimization method                                                   BFGS
 OPT| Total energy [hartree]                                     -322.3484467217
 OPT| Effective energy change [hartree]                            -0.0001318556
 OPT| Predicted energy change [hartree]                            -0.0001070768
 OPT| Scaling factor                                                0.9400567948
 OPT| Step size                                                     0.2472238201
 OPT| Trust radius                                                  0.3779452266
 OPT| Decrease in energy                                                     YES
 OPT| Used time [s]                                                       32.254
 OPT|
 OPT| Maximum step size                                             0.2472238201
 OPT| Convergence limit for maximum step size                       0.0030000000
 OPT| Maximum step size is converged                                          NO
 OPT|
 OPT| RMS step size                                                 0.0378182587
 OPT| Convergence limit for RMS step size                           0.0015000000
 OPT| RMS step size is converged                                              NO
 OPT|
 OPT| Maximum gradient                                              0.0022920992
 OPT| Convergence limit for maximum gradient                        0.0004500000
 OPT| Maximum gradient is converged                                           NO
 OPT|
 OPT| RMS gradient                                                  0.0005977723
 OPT| Convergence limit for RMS gradient                            0.0003000000
 OPT| RMS gradient is converged                                               NO
 OPT| **************************************************************************
 OPT| Estimated peak process memory after this step [MiB]                    716

 --------------------------
 OPTIMIZATION STEP:     35
 --------------------------

 *** WARNING in fm/cp_fm_elpa.F:521 :: Setting real_kernel for ELPA failed ***


 Number of electrons:                                                        218
 Number of occupied orbitals:                                                109
 Number of molecular orbitals:                                               146

 Number of orbital functions:                                                723
 Number of independent orbital functions:                                    723

 *** WARNING in fm/cp_fm_elpa.F:521 :: Setting real_kernel for ELPA failed ***


 Extrapolation method: ASPC


 SCF WAVEFUNCTION OPTIMIZATION

  Step     Update method      Time    Convergence         Total energy    Change
  ------------------------------------------------------------------------------

 *** WARNING in fm/cp_fm_elpa.F:521 :: Setting real_kernel for ELPA failed ***

     1 Broy./Diag. 0.40E+00    1.1     0.02865835      -322.3454464821 -3.22E+02

 *** WARNING in fm/cp_fm_elpa.F:521 :: Setting real_kernel for ELPA failed ***

     2 Broy./Diag. 0.40E+00    1.5     0.00320405      -322.3189731459  2.65E-02

 *** WARNING in fm/cp_fm_elpa.F:521 :: Setting real_kernel for ELPA failed ***

     3 Broy./Diag. 0.40E+00    1.6     0.00164078      -322.3437109339 -2.47E-02

 *** WARNING in fm/cp_fm_elpa.F:521 :: Setting real_kernel for ELPA failed ***

     4 Broy./Diag. 0.40E+00    1.6     0.00043582      -322.3493900333 -5.68E-03

 *** WARNING in fm/cp_fm_elpa.F:521 :: Setting real_kernel for ELPA failed ***

     5 Broy./Diag. 0.40E+00    1.6     0.00012655      -322.3491618611  2.28E-04

 *** WARNING in fm/cp_fm_elpa.F:521 :: Setting real_kernel for ELPA failed ***

     6 Broy./Diag. 0.40E+00    1.6     0.00006948      -322.3487375707  4.24E-04

 *** WARNING in fm/cp_fm_elpa.F:521 :: Setting real_kernel for ELPA failed ***

     7 Broy./Diag. 0.40E+00    1.7     0.00003690      -322.3486650415  7.25E-05

 *** WARNING in fm/cp_fm_elpa.F:521 :: Setting real_kernel for ELPA failed ***

     8 Broy./Diag. 0.40E+00    1.7     0.00003360      -322.3487347866 -6.97E-05

 *** WARNING in fm/cp_fm_elpa.F:521 :: Setting real_kernel for ELPA failed ***

     9 Broy./Diag. 0.40E+00    1.7     0.00001911      -322.3486603991  7.44E-05

 *** WARNING in fm/cp_fm_elpa.F:521 :: Setting real_kernel for ELPA failed ***

    10 Broy./Diag. 0.40E+00    1.8     0.00001037      -322.3485921290  6.83E-05

 *** WARNING in fm/cp_fm_elpa.F:521 :: Setting real_kernel for ELPA failed ***

    11 Broy./Diag. 0.40E+00    1.8     0.00000743      -322.3485675733  2.46E-05

 *** WARNING in fm/cp_fm_elpa.F:521 :: Setting real_kernel for ELPA failed ***

    12 Broy./Diag. 0.40E+00    1.8     0.00000549      -322.3485411310  2.64E-05

 *** WARNING in fm/cp_fm_elpa.F:521 :: Setting real_kernel for ELPA failed ***

    13 Broy./Diag. 0.40E+00    1.8     0.00000336      -322.3485296250  1.15E-05

 *** WARNING in fm/cp_fm_elpa.F:521 :: Setting real_kernel for ELPA failed ***

    14 Broy./Diag. 0.40E+00    1.8     0.00000338      -322.3485218691  7.76E-06

 *** WARNING in fm/cp_fm_elpa.F:521 :: Setting real_kernel for ELPA failed ***

    15 Broy./Diag. 0.40E+00    1.8     0.00000266      -322.3485368877 -1.50E-05

 *** WARNING in fm/cp_fm_elpa.F:521 :: Setting real_kernel for ELPA failed ***

    16 Broy./Diag. 0.40E+00    1.8     0.00000167      -322.3485389914 -2.10E-06

 *** WARNING in fm/cp_fm_elpa.F:521 :: Setting real_kernel for ELPA failed ***

    17 Broy./Diag. 0.40E+00    1.8     0.00000075      -322.3485395470 -5.56E-07

  *** SCF run converged in    17 steps ***


  Electronic density on regular grids:       -217.9999999988        0.0000000012
  Core density on regular grids:              219.9999999998       -0.0000000002
  Total charge density on r-space grids:        2.0000000010
  Total charge density g-space grids:           2.0000000010

  Overlap energy of the core charge distribution:               0.00001401918910
  Self energy of the core charge distribution:               -766.83425392616255
  Core Hamiltonian energy:                                    231.13552181685287
  Hartree energy:                                             308.93352350828536
  Exchange-correlation energy:                                -95.46577169485752
  Dispersion energy:                                           -0.11757327026106
  Electronic entropic energy:                                  -0.00000000000000
  Fermi energy:                                                -0.26627513157231

  Total energy:                                              -322.34853954695376

 ENERGY| Total FORCE_EVAL ( QS ) energy [hartree]           -322.348546505672005

 OPT| **************************************************************************
 OPT| Step number                                                             35
 OPT| Optimization method                                                   BFGS
 OPT| Total energy [hartree]                                     -322.3485465057
 OPT| Effective energy change [hartree]                            -0.0000997840
 OPT| Predicted energy change [hartree]                            -0.0001106984
 OPT| Scaling factor                                                0.9400567948
 OPT| Step size                                                     0.1169235046
 OPT| Trust radius                                                  0.3779452266
 OPT| Decrease in energy                                                     YES
 OPT| Used time [s]                                                       30.521
 OPT|
 OPT| Maximum step size                                             0.1169235046
 OPT| Convergence limit for maximum step size                       0.0030000000
 OPT| Maximum step size is converged                                          NO
 OPT|
 OPT| RMS step size                                                 0.0256851565
 OPT| Convergence limit for RMS step size                           0.0015000000
 OPT| RMS step size is converged                                              NO
 OPT|
 OPT| Maximum gradient                                              0.0024319622
 OPT| Convergence limit for maximum gradient                        0.0004500000
 OPT| Maximum gradient is converged                                           NO
 OPT|
 OPT| RMS gradient                                                  0.0006508221
 OPT| Convergence limit for RMS gradient                            0.0003000000
 OPT| RMS gradient is converged                                               NO
 OPT| **************************************************************************
 OPT| Estimated peak process memory after this step [MiB]                    716

 --------------------------
 OPTIMIZATION STEP:     36
 --------------------------

 *** WARNING in fm/cp_fm_elpa.F:521 :: Setting real_kernel for ELPA failed ***


 Number of electrons:                                                        218
 Number of occupied orbitals:                                                109
 Number of molecular orbitals:                                               146

 Number of orbital functions:                                                723
 Number of independent orbital functions:                                    723

 *** WARNING in fm/cp_fm_elpa.F:521 :: Setting real_kernel for ELPA failed ***


 Extrapolation method: ASPC


 SCF WAVEFUNCTION OPTIMIZATION

  Step     Update method      Time    Convergence         Total energy    Change
  ------------------------------------------------------------------------------

 *** WARNING in fm/cp_fm_elpa.F:521 :: Setting real_kernel for ELPA failed ***

     1 Broy./Diag. 0.40E+00    1.1     0.01408801      -322.3479605782 -3.22E+02

 *** WARNING in fm/cp_fm_elpa.F:521 :: Setting real_kernel for ELPA failed ***

     2 Broy./Diag. 0.40E+00    1.5     0.00234869      -322.3638252238 -1.59E-02

 *** WARNING in fm/cp_fm_elpa.F:521 :: Setting real_kernel for ELPA failed ***

     3 Broy./Diag. 0.40E+00    1.6     0.00054899      -322.3516778615  1.21E-02

 *** WARNING in fm/cp_fm_elpa.F:521 :: Setting real_kernel for ELPA failed ***

     4 Broy./Diag. 0.40E+00    1.6     0.00031046      -322.3498921468  1.79E-03

 *** WARNING in fm/cp_fm_elpa.F:521 :: Setting real_kernel for ELPA failed ***

     5 Broy./Diag. 0.40E+00    1.6     0.00008881      -322.3481511752  1.74E-03

 *** WARNING in fm/cp_fm_elpa.F:521 :: Setting real_kernel for ELPA failed ***

     6 Broy./Diag. 0.40E+00    1.6     0.00002997      -322.3487194678 -5.68E-04

 *** WARNING in fm/cp_fm_elpa.F:521 :: Setting real_kernel for ELPA failed ***

     7 Broy./Diag. 0.40E+00    1.7     0.00001631      -322.3488056108 -8.61E-05

 *** WARNING in fm/cp_fm_elpa.F:521 :: Setting real_kernel for ELPA failed ***

     8 Broy./Diag. 0.40E+00    1.7     0.00002061      -322.3488192859 -1.37E-05

 *** WARNING in fm/cp_fm_elpa.F:521 :: Setting real_kernel for ELPA failed ***

     9 Broy./Diag. 0.40E+00    1.7     0.00001061      -322.3487555094  6.38E-05

 *** WARNING in fm/cp_fm_elpa.F:521 :: Setting real_kernel for ELPA failed ***

    10 Broy./Diag. 0.40E+00    1.8     0.00000957      -322.3487255198  3.00E-05

 *** WARNING in fm/cp_fm_elpa.F:521 :: Setting real_kernel for ELPA failed ***

    11 Broy./Diag. 0.40E+00    1.8     0.00000511      -322.3487131207  1.24E-05

 *** WARNING in fm/cp_fm_elpa.F:521 :: Setting real_kernel for ELPA failed ***

    12 Broy./Diag. 0.40E+00    1.8     0.00000344      -322.3487067911  6.33E-06

 *** WARNING in fm/cp_fm_elpa.F:521 :: Setting real_kernel for ELPA failed ***

    13 Broy./Diag. 0.40E+00    1.8     0.00000255      -322.3486993420  7.45E-06

 *** WARNING in fm/cp_fm_elpa.F:521 :: Setting real_kernel for ELPA failed ***

    14 Broy./Diag. 0.40E+00    1.8     0.00000145      -322.3486981832  1.16E-06

 *** WARNING in fm/cp_fm_elpa.F:521 :: Setting real_kernel for ELPA failed ***

    15 Broy./Diag. 0.40E+00    1.8     0.00000081      -322.3486979393  2.44E-07

  *** SCF run converged in    15 steps ***


  Electronic density on regular grids:       -217.9999999988        0.0000000012
  Core density on regular grids:              219.9999999998       -0.0000000002
  Total charge density on r-space grids:        2.0000000010
  Total charge density g-space grids:           2.0000000010

  Overlap energy of the core charge distribution:               0.00001411024147
  Self energy of the core charge distribution:               -766.83425392616255
  Core Hamiltonian energy:                                    231.15701625811835
  Hartree energy:                                             308.91821768256540
  Exchange-correlation energy:                                -95.47211403334911
  Dispersion energy:                                           -0.11757803071932
  Electronic entropic energy:                                  -0.00000000000000
  Fermi energy:                                                -0.26649145842433

  Total energy:                                              -322.34869793930568

 ENERGY| Total FORCE_EVAL ( QS ) energy [hartree]           -322.348701985711728

 OPT| **************************************************************************
 OPT| Step number                                                             36
 OPT| Optimization method                                                   BFGS
 OPT| Total energy [hartree]                                     -322.3487019857
 OPT| Effective energy change [hartree]                            -0.0001554800
 OPT| Predicted energy change [hartree]                            -0.0001230031
 OPT| Scaling factor                                                0.9400567948
 OPT| Step size                                                     0.0246661153
 OPT| Trust radius                                                  0.3779452266
 OPT| Decrease in energy                                                     YES
 OPT| Used time [s]                                                       26.987
 OPT|
 OPT| Maximum step size                                             0.0246661153
 OPT| Convergence limit for maximum step size                       0.0030000000
 OPT| Maximum step size is converged                                          NO
 OPT|
 OPT| RMS step size                                                 0.0042319163
 OPT| Convergence limit for RMS step size                           0.0015000000
 OPT| RMS step size is converged                                              NO
 OPT|
 OPT| Maximum gradient                                              0.0018351285
 OPT| Convergence limit for maximum gradient                        0.0004500000
 OPT| Maximum gradient is converged                                           NO
 OPT|
 OPT| RMS gradient                                                  0.0003695807
 OPT| Convergence limit for RMS gradient                            0.0003000000
 OPT| RMS gradient is converged                                               NO
 OPT| **************************************************************************
 OPT| Estimated peak process memory after this step [MiB]                    716

 --------------------------
 OPTIMIZATION STEP:     37
 --------------------------

 *** WARNING in fm/cp_fm_elpa.F:521 :: Setting real_kernel for ELPA failed ***


 Number of electrons:                                                        218
 Number of occupied orbitals:                                                109
 Number of molecular orbitals:                                               146

 Number of orbital functions:                                                723
 Number of independent orbital functions:                                    723

 *** WARNING in fm/cp_fm_elpa.F:521 :: Setting real_kernel for ELPA failed ***


 Extrapolation method: ASPC


 SCF WAVEFUNCTION OPTIMIZATION

  Step     Update method      Time    Convergence         Total energy    Change
  ------------------------------------------------------------------------------

 *** WARNING in fm/cp_fm_elpa.F:521 :: Setting real_kernel for ELPA failed ***

     1 Broy./Diag. 0.40E+00    1.1     0.01126934      -322.3478671352 -3.22E+02

 *** WARNING in fm/cp_fm_elpa.F:521 :: Setting real_kernel for ELPA failed ***

     2 Broy./Diag. 0.40E+00    1.5     0.00402930      -322.3427780931  5.09E-03

 *** WARNING in fm/cp_fm_elpa.F:521 :: Setting real_kernel for ELPA failed ***

     3 Broy./Diag. 0.40E+00    1.6     0.00091948      -322.3506544804 -7.88E-03

 *** WARNING in fm/cp_fm_elpa.F:521 :: Setting real_kernel for ELPA failed ***

     4 Broy./Diag. 0.40E+00    1.6     0.00053976      -322.3484821672  2.17E-03

 *** WARNING in fm/cp_fm_elpa.F:521 :: Setting real_kernel for ELPA failed ***

     5 Broy./Diag. 0.40E+00    1.6     0.00009335      -322.3493393212 -8.57E-04

 *** WARNING in fm/cp_fm_elpa.F:521 :: Setting real_kernel for ELPA failed ***

     6 Broy./Diag. 0.40E+00    1.6     0.00003101      -322.3489563174  3.83E-04

 *** WARNING in fm/cp_fm_elpa.F:521 :: Setting real_kernel for ELPA failed ***

     7 Broy./Diag. 0.40E+00    1.7     0.00001667      -322.3489220709  3.42E-05

 *** WARNING in fm/cp_fm_elpa.F:521 :: Setting real_kernel for ELPA failed ***

     8 Broy./Diag. 0.40E+00    1.7     0.00002163      -322.3488703885  5.17E-05

 *** WARNING in fm/cp_fm_elpa.F:521 :: Setting real_kernel for ELPA failed ***

     9 Broy./Diag. 0.40E+00    1.7     0.00001049      -322.3488485492  2.18E-05

 *** WARNING in fm/cp_fm_elpa.F:521 :: Setting real_kernel for ELPA failed ***

    10 Broy./Diag. 0.40E+00    1.8     0.00001110      -322.3487949249  5.36E-05

 *** WARNING in fm/cp_fm_elpa.F:521 :: Setting real_kernel for ELPA failed ***

    11 Broy./Diag. 0.40E+00    1.8     0.00000666      -322.3487865825  8.34E-06

 *** WARNING in fm/cp_fm_elpa.F:521 :: Setting real_kernel for ELPA failed ***

    12 Broy./Diag. 0.40E+00    1.8     0.00000279      -322.3487889906 -2.41E-06

 *** WARNING in fm/cp_fm_elpa.F:521 :: Setting real_kernel for ELPA failed ***

    13 Broy./Diag. 0.40E+00    1.8     0.00000165      -322.3488001006 -1.11E-05

 *** WARNING in fm/cp_fm_elpa.F:521 :: Setting real_kernel for ELPA failed ***

    14 Broy./Diag. 0.40E+00    1.8     0.00000097      -322.3487979986  2.10E-06

  *** SCF run converged in    14 steps ***


  Electronic density on regular grids:       -217.9999999988        0.0000000012
  Core density on regular grids:              219.9999999998       -0.0000000002
  Total charge density on r-space grids:        2.0000000010
  Total charge density g-space grids:           2.0000000010

  Overlap energy of the core charge distribution:               0.00001414881637
  Self energy of the core charge distribution:               -766.83425392616255
  Core Hamiltonian energy:                                    231.16439561741487
  Hartree energy:                                             308.91273984435378
  Exchange-correlation energy:                                -95.47415593490427
  Dispersion energy:                                           -0.11753774809784
  Electronic entropic energy:                                  -0.00000000000000
  Fermi energy:                                                -0.26630711430778

  Total energy:                                              -322.34879799857958

 ENERGY| Total FORCE_EVAL ( QS ) energy [hartree]           -322.348788692987512

 OPT| **************************************************************************
 OPT| Step number                                                             37
 OPT| Optimization method                                                   BFGS
 OPT| Total energy [hartree]                                     -322.3487886930
 OPT| Effective energy change [hartree]                            -0.0000867073
 OPT| Predicted energy change [hartree]                            -0.0000758699
 OPT| Scaling factor                                                0.9400567948
 OPT| Step size                                                     0.0712809307
 OPT| Trust radius                                                  0.3779452266
 OPT| Decrease in energy                                                     YES
 OPT| Used time [s]                                                       25.137
 OPT|
 OPT| Maximum step size                                             0.0712809307
 OPT| Convergence limit for maximum step size                       0.0030000000
 OPT| Maximum step size is converged                                          NO
 OPT|
 OPT| RMS step size                                                 0.0092956367
 OPT| Convergence limit for RMS step size                           0.0015000000
 OPT| RMS step size is converged                                              NO
 OPT|
 OPT| Maximum gradient                                              0.0018092166
 OPT| Convergence limit for maximum gradient                        0.0004500000
 OPT| Maximum gradient is converged                                           NO
 OPT|
 OPT| RMS gradient                                                  0.0003488370
 OPT| Convergence limit for RMS gradient                            0.0003000000
 OPT| RMS gradient is converged                                               NO
 OPT| **************************************************************************
 OPT| Estimated peak process memory after this step [MiB]                    716

 --------------------------
 OPTIMIZATION STEP:     38
 --------------------------

 *** WARNING in fm/cp_fm_elpa.F:521 :: Setting real_kernel for ELPA failed ***


 Number of electrons:                                                        218
 Number of occupied orbitals:                                                109
 Number of molecular orbitals:                                               146

 Number of orbital functions:                                                723
 Number of independent orbital functions:                                    723

 *** WARNING in fm/cp_fm_elpa.F:521 :: Setting real_kernel for ELPA failed ***


 Extrapolation method: ASPC


 SCF WAVEFUNCTION OPTIMIZATION

  Step     Update method      Time    Convergence         Total energy    Change
  ------------------------------------------------------------------------------

 *** WARNING in fm/cp_fm_elpa.F:521 :: Setting real_kernel for ELPA failed ***

     1 Broy./Diag. 0.40E+00    1.1     0.01502051      -322.3479506890 -3.22E+02

 *** WARNING in fm/cp_fm_elpa.F:521 :: Setting real_kernel for ELPA failed ***

     2 Broy./Diag. 0.40E+00    1.5     0.00202064      -322.3410145603  6.94E-03

 *** WARNING in fm/cp_fm_elpa.F:521 :: Setting real_kernel for ELPA failed ***

     3 Broy./Diag. 0.40E+00    1.6     0.00068820      -322.3474488999 -6.43E-03

 *** WARNING in fm/cp_fm_elpa.F:521 :: Setting real_kernel for ELPA failed ***

     4 Broy./Diag. 0.40E+00    1.6     0.00029683      -322.3497701356 -2.32E-03

 *** WARNING in fm/cp_fm_elpa.F:521 :: Setting real_kernel for ELPA failed ***

     5 Broy./Diag. 0.40E+00    1.6     0.00008196      -322.3494529238  3.17E-04

 *** WARNING in fm/cp_fm_elpa.F:521 :: Setting real_kernel for ELPA failed ***

     6 Broy./Diag. 0.40E+00    1.6     0.00003144      -322.3491152924  3.38E-04

 *** WARNING in fm/cp_fm_elpa.F:521 :: Setting real_kernel for ELPA failed ***

     7 Broy./Diag. 0.40E+00    1.7     0.00001249      -322.3490272111  8.81E-05

 *** WARNING in fm/cp_fm_elpa.F:521 :: Setting real_kernel for ELPA failed ***

     8 Broy./Diag. 0.40E+00    1.7     0.00001524      -322.3489933720  3.38E-05

 *** WARNING in fm/cp_fm_elpa.F:521 :: Setting real_kernel for ELPA failed ***

     9 Broy./Diag. 0.40E+00    1.7     0.00000872      -322.3489455789  4.78E-05

 *** WARNING in fm/cp_fm_elpa.F:521 :: Setting real_kernel for ELPA failed ***

    10 Broy./Diag. 0.40E+00    1.8     0.00000972      -322.3488875364  5.80E-05

 *** WARNING in fm/cp_fm_elpa.F:521 :: Setting real_kernel for ELPA failed ***

    11 Broy./Diag. 0.40E+00    1.8     0.00000542      -322.3488727366  1.48E-05

 *** WARNING in fm/cp_fm_elpa.F:521 :: Setting real_kernel for ELPA failed ***

    12 Broy./Diag. 0.40E+00    1.8     0.00000284      -322.3488572559  1.55E-05

 *** WARNING in fm/cp_fm_elpa.F:521 :: Setting real_kernel for ELPA failed ***

    13 Broy./Diag. 0.40E+00    1.8     0.00000127      -322.3488545024  2.75E-06

 *** WARNING in fm/cp_fm_elpa.F:521 :: Setting real_kernel for ELPA failed ***

    14 Broy./Diag. 0.40E+00    1.8     0.00000149      -322.3488481127  6.39E-06

 *** WARNING in fm/cp_fm_elpa.F:521 :: Setting real_kernel for ELPA failed ***

    15 Broy./Diag. 0.40E+00    1.8     0.00000127      -322.3488519536 -3.84E-06

 *** WARNING in fm/cp_fm_elpa.F:521 :: Setting real_kernel for ELPA failed ***

    16 Broy./Diag. 0.40E+00    1.8     0.00000070      -322.3488528698 -9.16E-07

  *** SCF run converged in    16 steps ***


  Electronic density on regular grids:       -217.9999999988        0.0000000012
  Core density on regular grids:              219.9999999998       -0.0000000002
  Total charge density on r-space grids:        2.0000000010
  Total charge density g-space grids:           2.0000000010

  Overlap energy of the core charge distribution:               0.00001413659470
  Self energy of the core charge distribution:               -766.83425392616255
  Core Hamiltonian energy:                                    231.15386146158386
  Hartree energy:                                             308.92020135824828
  Exchange-correlation energy:                                -95.47122395706701
  Dispersion energy:                                           -0.11745194298277
  Electronic entropic energy:                                  -0.00000000000000
  Fermi energy:                                                -0.26618246945731

  Total energy:                                              -322.34885286978556

 ENERGY| Total FORCE_EVAL ( QS ) energy [hartree]           -322.348854869463082

 OPT| **************************************************************************
 OPT| Step number                                                             38
 OPT| Optimization method                                                   BFGS
 OPT| Total energy [hartree]                                     -322.3488548695
 OPT| Effective energy change [hartree]                            -0.0000661765
 OPT| Predicted energy change [hartree]                            -0.0000591644
 OPT| Scaling factor                                                0.9400567948
 OPT| Step size                                                     0.1162164336
 OPT| Trust radius                                                  0.3779452266
 OPT| Decrease in energy                                                     YES
 OPT| Used time [s]                                                       28.745
 OPT|
 OPT| Maximum step size                                             0.1162164336
 OPT| Convergence limit for maximum step size                       0.0030000000
 OPT| Maximum step size is converged                                          NO
 OPT|
 OPT| RMS step size                                                 0.0145726767
 OPT| Convergence limit for RMS step size                           0.0015000000
 OPT| RMS step size is converged                                              NO
 OPT|
 OPT| Maximum gradient                                              0.0012854011
 OPT| Convergence limit for maximum gradient                        0.0004500000
 OPT| Maximum gradient is converged                                           NO
 OPT|
 OPT| RMS gradient                                                  0.0003757546
 OPT| Convergence limit for RMS gradient                            0.0003000000
 OPT| RMS gradient is converged                                               NO
 OPT| **************************************************************************
 OPT| Estimated peak process memory after this step [MiB]                    716

 --------------------------
 OPTIMIZATION STEP:     39
 --------------------------

 *** WARNING in fm/cp_fm_elpa.F:521 :: Setting real_kernel for ELPA failed ***


 Number of electrons:                                                        218
 Number of occupied orbitals:                                                109
 Number of molecular orbitals:                                               146

 Number of orbital functions:                                                723
 Number of independent orbital functions:                                    723

 *** WARNING in fm/cp_fm_elpa.F:521 :: Setting real_kernel for ELPA failed ***


 Extrapolation method: ASPC


 SCF WAVEFUNCTION OPTIMIZATION

  Step     Update method      Time    Convergence         Total energy    Change
  ------------------------------------------------------------------------------

 *** WARNING in fm/cp_fm_elpa.F:521 :: Setting real_kernel for ELPA failed ***

     1 Broy./Diag. 0.40E+00    1.1     0.01116975      -322.3482558558 -3.22E+02

 *** WARNING in fm/cp_fm_elpa.F:521 :: Setting real_kernel for ELPA failed ***

     2 Broy./Diag. 0.40E+00    1.5     0.00212723      -322.3358338299  1.24E-02

 *** WARNING in fm/cp_fm_elpa.F:521 :: Setting real_kernel for ELPA failed ***

     3 Broy./Diag. 0.40E+00    1.6     0.00052233      -322.3464228314 -1.06E-02

 *** WARNING in fm/cp_fm_elpa.F:521 :: Setting real_kernel for ELPA failed ***

     4 Broy./Diag. 0.40E+00    1.6     0.00021519      -322.3485568231 -2.13E-03

 *** WARNING in fm/cp_fm_elpa.F:521 :: Setting real_kernel for ELPA failed ***

     5 Broy./Diag. 0.40E+00    1.6     0.00009963      -322.3492429212 -6.86E-04

 *** WARNING in fm/cp_fm_elpa.F:521 :: Setting real_kernel for ELPA failed ***

     6 Broy./Diag. 0.40E+00    1.6     0.00003475      -322.3488882391  3.55E-04

 *** WARNING in fm/cp_fm_elpa.F:521 :: Setting real_kernel for ELPA failed ***

     7 Broy./Diag. 0.40E+00    1.7     0.00001102      -322.3489058230 -1.76E-05

 *** WARNING in fm/cp_fm_elpa.F:521 :: Setting real_kernel for ELPA failed ***

     8 Broy./Diag. 0.40E+00    1.7     0.00000678      -322.3489184188 -1.26E-05

 *** WARNING in fm/cp_fm_elpa.F:521 :: Setting real_kernel for ELPA failed ***

     9 Broy./Diag. 0.40E+00    1.7     0.00000401      -322.3489387736 -2.04E-05

 *** WARNING in fm/cp_fm_elpa.F:521 :: Setting real_kernel for ELPA failed ***

    10 Broy./Diag. 0.40E+00    1.8     0.00000302      -322.3489343309  4.44E-06

 *** WARNING in fm/cp_fm_elpa.F:521 :: Setting real_kernel for ELPA failed ***

    11 Broy./Diag. 0.40E+00    1.8     0.00000196      -322.3489369120 -2.58E-06

 *** WARNING in fm/cp_fm_elpa.F:521 :: Setting real_kernel for ELPA failed ***

    12 Broy./Diag. 0.40E+00    1.8     0.00000167      -322.3489359926  9.19E-07

 *** WARNING in fm/cp_fm_elpa.F:521 :: Setting real_kernel for ELPA failed ***

    13 Broy./Diag. 0.40E+00    1.8     0.00000120      -322.3489362639 -2.71E-07

 *** WARNING in fm/cp_fm_elpa.F:521 :: Setting real_kernel for ELPA failed ***

    14 Broy./Diag. 0.40E+00    1.8     0.00000066      -322.3489333619  2.90E-06

  *** SCF run converged in    14 steps ***


  Electronic density on regular grids:       -217.9999999988        0.0000000012
  Core density on regular grids:              219.9999999998       -0.0000000002
  Total charge density on r-space grids:        2.0000000010
  Total charge density g-space grids:           2.0000000010

  Overlap energy of the core charge distribution:               0.00001420370285
  Self energy of the core charge distribution:               -766.83425392616255
  Core Hamiltonian energy:                                    231.17127572605102
  Hartree energy:                                             308.90760970397741
  Exchange-correlation energy:                                -95.47614643932442
  Dispersion energy:                                           -0.11743263015759
  Electronic entropic energy:                                  -0.00000000000000
  Fermi energy:                                                -0.26597702894358

  Total energy:                                              -322.34893336191323

 ENERGY| Total FORCE_EVAL ( QS ) energy [hartree]           -322.348936269594219

 OPT| **************************************************************************
 OPT| Step number                                                             39
 OPT| Optimization method                                                   BFGS
 OPT| Total energy [hartree]                                     -322.3489362696
 OPT| Effective energy change [hartree]                            -0.0000814001
 OPT| Predicted energy change [hartree]                            -0.0000706709
 OPT| Scaling factor                                                0.9400567948
 OPT| Step size                                                     0.0508326406
 OPT| Trust radius                                                  0.3779452266
 OPT| Decrease in energy                                                     YES
 OPT| Used time [s]                                                       25.221
 OPT|
 OPT| Maximum step size                                             0.0508326406
 OPT| Convergence limit for maximum step size                       0.0030000000
 OPT| Maximum step size is converged                                          NO
 OPT|
 OPT| RMS step size                                                 0.0094725441
 OPT| Convergence limit for RMS step size                           0.0015000000
 OPT| RMS step size is converged                                              NO
 OPT|
 OPT| Maximum gradient                                              0.0015990770
 OPT| Convergence limit for maximum gradient                        0.0004500000
 OPT| Maximum gradient is converged                                           NO
 OPT|
 OPT| RMS gradient                                                  0.0004408482
 OPT| Convergence limit for RMS gradient                            0.0003000000
 OPT| RMS gradient is converged                                               NO
 OPT| **************************************************************************
 OPT| Estimated peak process memory after this step [MiB]                    716

 --------------------------
 OPTIMIZATION STEP:     40
 --------------------------

 *** WARNING in fm/cp_fm_elpa.F:521 :: Setting real_kernel for ELPA failed ***


 Number of electrons:                                                        218
 Number of occupied orbitals:                                                109
 Number of molecular orbitals:                                               146

 Number of orbital functions:                                                723
 Number of independent orbital functions:                                    723

 *** WARNING in fm/cp_fm_elpa.F:521 :: Setting real_kernel for ELPA failed ***


 Extrapolation method: ASPC


 SCF WAVEFUNCTION OPTIMIZATION

  Step     Update method      Time    Convergence         Total energy    Change
  ------------------------------------------------------------------------------

 *** WARNING in fm/cp_fm_elpa.F:521 :: Setting real_kernel for ELPA failed ***

     1 Broy./Diag. 0.40E+00    1.1     0.05404155      -322.3437509381 -3.22E+02

 *** WARNING in fm/cp_fm_elpa.F:521 :: Setting real_kernel for ELPA failed ***

     2 Broy./Diag. 0.40E+00    1.5     0.00358169      -322.3584139640 -1.47E-02

 *** WARNING in fm/cp_fm_elpa.F:521 :: Setting real_kernel for ELPA failed ***

     3 Broy./Diag. 0.40E+00    1.6     0.00156825      -322.3541686957  4.25E-03

 *** WARNING in fm/cp_fm_elpa.F:521 :: Setting real_kernel for ELPA failed ***

     4 Broy./Diag. 0.40E+00    1.6     0.00055755      -322.3513807520  2.79E-03

 *** WARNING in fm/cp_fm_elpa.F:521 :: Setting real_kernel for ELPA failed ***

     5 Broy./Diag. 0.40E+00    1.6     0.00023886      -322.3508616426  5.19E-04

 *** WARNING in fm/cp_fm_elpa.F:521 :: Setting real_kernel for ELPA failed ***

     6 Broy./Diag. 0.40E+00    1.6     0.00012156      -322.3500678158  7.94E-04

 *** WARNING in fm/cp_fm_elpa.F:521 :: Setting real_kernel for ELPA failed ***

     7 Broy./Diag. 0.40E+00    1.6     0.00005210      -322.3498921667  1.76E-04

 *** WARNING in fm/cp_fm_elpa.F:521 :: Setting real_kernel for ELPA failed ***

     8 Broy./Diag. 0.40E+00    1.7     0.00006782      -322.3495478839  3.44E-04

 *** WARNING in fm/cp_fm_elpa.F:521 :: Setting real_kernel for ELPA failed ***

     9 Broy./Diag. 0.40E+00    1.7     0.00002144      -322.3492967696  2.51E-04

 *** WARNING in fm/cp_fm_elpa.F:521 :: Setting real_kernel for ELPA failed ***

    10 Broy./Diag. 0.40E+00    1.8     0.00002129      -322.3490882203  2.09E-04

 *** WARNING in fm/cp_fm_elpa.F:521 :: Setting real_kernel for ELPA failed ***

    11 Broy./Diag. 0.40E+00    1.8     0.00001157      -322.3490740255  1.42E-05

 *** WARNING in fm/cp_fm_elpa.F:521 :: Setting real_kernel for ELPA failed ***

    12 Broy./Diag. 0.40E+00    1.8     0.00000643      -322.3490842842 -1.03E-05

 *** WARNING in fm/cp_fm_elpa.F:521 :: Setting real_kernel for ELPA failed ***

    13 Broy./Diag. 0.40E+00    1.8     0.00000438      -322.3491005505 -1.63E-05

 *** WARNING in fm/cp_fm_elpa.F:521 :: Setting real_kernel for ELPA failed ***

    14 Broy./Diag. 0.40E+00    1.8     0.00000366      -322.3490784067  2.21E-05

 *** WARNING in fm/cp_fm_elpa.F:521 :: Setting real_kernel for ELPA failed ***

    15 Broy./Diag. 0.40E+00    1.8     0.00000243      -322.3490848111 -6.40E-06

 *** WARNING in fm/cp_fm_elpa.F:521 :: Setting real_kernel for ELPA failed ***

    16 Broy./Diag. 0.40E+00    1.8     0.00000124      -322.3490808344  3.98E-06

 *** WARNING in fm/cp_fm_elpa.F:521 :: Setting real_kernel for ELPA failed ***

    17 Broy./Diag. 0.40E+00    1.8     0.00000087      -322.3490785789  2.26E-06

  *** SCF run converged in    17 steps ***


  Electronic density on regular grids:       -217.9999999988        0.0000000012
  Core density on regular grids:              219.9999999998       -0.0000000002
  Total charge density on r-space grids:        2.0000000010
  Total charge density g-space grids:           2.0000000010

  Overlap energy of the core charge distribution:               0.00001407341760
  Self energy of the core charge distribution:               -766.83425392616255
  Core Hamiltonian energy:                                    231.12976136569947
  Hartree energy:                                             308.93655713523390
  Exchange-correlation energy:                                -95.46393320385772
  Dispersion energy:                                           -0.11722402318754
  Electronic entropic energy:                                  -0.00000000000000
  Fermi energy:                                                -0.26517845989996

  Total energy:                                              -322.34907857885690

 ENERGY| Total FORCE_EVAL ( QS ) energy [hartree]           -322.349073206046626

 OPT| **************************************************************************
 OPT| Step number                                                             40
 OPT| Optimization method                                                   BFGS
 OPT| Total energy [hartree]                                     -322.3490732060
 OPT| Effective energy change [hartree]                            -0.0001369365
 OPT| Predicted energy change [hartree]                            -0.0001066760
 OPT| Scaling factor                                                0.9400567948
 OPT| Step size                                                     0.2767641558
 OPT| Trust radius                                                  0.3779452266
 OPT| Decrease in energy                                                     YES
 OPT| Used time [s]                                                       30.427
 OPT|
 OPT| Maximum step size                                             0.2767641558
 OPT| Convergence limit for maximum step size                       0.0030000000
 OPT| Maximum step size is converged                                          NO
 OPT|
 OPT| RMS step size                                                 0.0382489556
 OPT| Convergence limit for RMS step size                           0.0015000000
 OPT| RMS step size is converged                                              NO
 OPT|
 OPT| Maximum gradient                                              0.0020646819
 OPT| Convergence limit for maximum gradient                        0.0004500000
 OPT| Maximum gradient is converged                                           NO
 OPT|
 OPT| RMS gradient                                                  0.0004932175
 OPT| Convergence limit for RMS gradient                            0.0003000000
 OPT| RMS gradient is converged                                               NO
 OPT| **************************************************************************
 OPT| Estimated peak process memory after this step [MiB]                    716

 --------------------------
 OPTIMIZATION STEP:     41
 --------------------------

 *** WARNING in fm/cp_fm_elpa.F:521 :: Setting real_kernel for ELPA failed ***


  Step is scaled; Scaling factor =  0.67597

 Number of electrons:                                                        218
 Number of occupied orbitals:                                                109
 Number of molecular orbitals:                                               146

 Number of orbital functions:                                                723
 Number of independent orbital functions:                                    723

 *** WARNING in fm/cp_fm_elpa.F:521 :: Setting real_kernel for ELPA failed ***


 Extrapolation method: ASPC


 SCF WAVEFUNCTION OPTIMIZATION

  Step     Update method      Time    Convergence         Total energy    Change
  ------------------------------------------------------------------------------

 *** WARNING in fm/cp_fm_elpa.F:521 :: Setting real_kernel for ELPA failed ***

     1 Broy./Diag. 0.40E+00    1.1     0.05445554      -322.3410743148 -3.22E+02

 *** WARNING in fm/cp_fm_elpa.F:521 :: Setting real_kernel for ELPA failed ***

     2 Broy./Diag. 0.40E+00    1.5     0.00778656      -322.2954837294  4.56E-02

 *** WARNING in fm/cp_fm_elpa.F:521 :: Setting real_kernel for ELPA failed ***

     3 Broy./Diag. 0.40E+00    1.6     0.00214944      -322.3442939493 -4.88E-02

 *** WARNING in fm/cp_fm_elpa.F:521 :: Setting real_kernel for ELPA failed ***

     4 Broy./Diag. 0.40E+00    1.6     0.00126214      -322.3489136055 -4.62E-03

 *** WARNING in fm/cp_fm_elpa.F:521 :: Setting real_kernel for ELPA failed ***

     5 Broy./Diag. 0.40E+00    1.6     0.00039098      -322.3521402620 -3.23E-03

 *** WARNING in fm/cp_fm_elpa.F:521 :: Setting real_kernel for ELPA failed ***

     6 Broy./Diag. 0.40E+00    1.6     0.00014009      -322.3496651535  2.48E-03

 *** WARNING in fm/cp_fm_elpa.F:521 :: Setting real_kernel for ELPA failed ***

     7 Broy./Diag. 0.40E+00    1.7     0.00004441      -322.3495479329  1.17E-04

 *** WARNING in fm/cp_fm_elpa.F:521 :: Setting real_kernel for ELPA failed ***

     8 Broy./Diag. 0.40E+00    1.7     0.00005150      -322.3492937938  2.54E-04

 *** WARNING in fm/cp_fm_elpa.F:521 :: Setting real_kernel for ELPA failed ***

     9 Broy./Diag. 0.40E+00    1.7     0.00002784      -322.3491740037  1.20E-04

 *** WARNING in fm/cp_fm_elpa.F:521 :: Setting real_kernel for ELPA failed ***

    10 Broy./Diag. 0.40E+00    1.8     0.00002457      -322.3490201750  1.54E-04

 *** WARNING in fm/cp_fm_elpa.F:521 :: Setting real_kernel for ELPA failed ***

    11 Broy./Diag. 0.40E+00    1.8     0.00001307      -322.3489837767  3.64E-05

 *** WARNING in fm/cp_fm_elpa.F:521 :: Setting real_kernel for ELPA failed ***

    12 Broy./Diag. 0.40E+00    1.8     0.00000885      -322.3489753421  8.43E-06

 *** WARNING in fm/cp_fm_elpa.F:521 :: Setting real_kernel for ELPA failed ***

    13 Broy./Diag. 0.40E+00    1.8     0.00000428      -322.3489653956  9.95E-06

 *** WARNING in fm/cp_fm_elpa.F:521 :: Setting real_kernel for ELPA failed ***

    14 Broy./Diag. 0.40E+00    1.8     0.00000622      -322.3489470782  1.83E-05

 *** WARNING in fm/cp_fm_elpa.F:521 :: Setting real_kernel for ELPA failed ***

    15 Broy./Diag. 0.40E+00    1.8     0.00000574      -322.3489565077 -9.43E-06

 *** WARNING in fm/cp_fm_elpa.F:521 :: Setting real_kernel for ELPA failed ***

    16 Broy./Diag. 0.40E+00    1.8     0.00000371      -322.3489581976 -1.69E-06

 *** WARNING in fm/cp_fm_elpa.F:521 :: Setting real_kernel for ELPA failed ***

    17 Broy./Diag. 0.40E+00    1.8     0.00000210      -322.3489563685  1.83E-06

 *** WARNING in fm/cp_fm_elpa.F:521 :: Setting real_kernel for ELPA failed ***

    18 Broy./Diag. 0.40E+00    1.8     0.00000120      -322.3489502584  6.11E-06

 *** WARNING in fm/cp_fm_elpa.F:521 :: Setting real_kernel for ELPA failed ***

    19 Broy./Diag. 0.40E+00    1.8     0.00000061      -322.3489505933 -3.35E-07

  *** SCF run converged in    19 steps ***


  Electronic density on regular grids:       -217.9999999988        0.0000000012
  Core density on regular grids:              219.9999999998       -0.0000000002
  Total charge density on r-space grids:        2.0000000010
  Total charge density g-space grids:           2.0000000010

  Overlap energy of the core charge distribution:               0.00001385096775
  Self energy of the core charge distribution:               -766.83425392616255
  Core Hamiltonian energy:                                    231.05703045581959
  Hartree energy:                                             308.98748491981047
  Exchange-correlation energy:                                -95.44229136135797
  Dispersion energy:                                           -0.11693453242061
  Electronic entropic energy:                                  -0.00000000000000
  Fermi energy:                                                -0.26390645073061

  Total energy:                                              -322.34895059334326

 ENERGY| Total FORCE_EVAL ( QS ) energy [hartree]           -322.348953300720950

 OPT| **************************************************************************
 OPT| Step number                                                             41
 OPT| Optimization method                                                   BFGS
 OPT| Total energy [hartree]                                     -322.3489533007
 OPT| Effective energy change [hartree]                             0.0001199053
 OPT| Predicted energy change [hartree]                            -0.0001741423
 OPT| Scaling factor                                                0.6759738465
 OPT| Step size                                                     0.3779452266
 OPT| Trust radius                                                  0.3779452266
 OPT| Decrease in energy                                                      NO
 OPT| Used time [s]                                                       34.045
 OPT|
 OPT| Maximum step size                                             0.3779452266
 OPT| Convergence limit for maximum step size                       0.0030000000
 OPT| Maximum step size is converged                                          NO
 OPT|
 OPT| RMS step size                                                 0.0601112443
 OPT| Convergence limit for RMS step size                           0.0015000000
 OPT| RMS step size is converged                                              NO
 OPT|
 OPT| Maximum gradient                                              0.0038344394
 OPT| Convergence limit for maximum gradient                        0.0004500000
 OPT| Maximum gradient is converged                                           NO
 OPT|
 OPT| RMS gradient                                                  0.0008164804
 OPT| Convergence limit for RMS gradient                            0.0003000000
 OPT| RMS gradient is converged                                               NO
 OPT| **************************************************************************
 OPT| Estimated peak process memory after this step [MiB]                    716

 --------------------------
 OPTIMIZATION STEP:     42
 --------------------------

 *** WARNING in fm/cp_fm_elpa.F:521 :: Setting real_kernel for ELPA failed ***


 Number of electrons:                                                        218
 Number of occupied orbitals:                                                109
 Number of molecular orbitals:                                               146

 Number of orbital functions:                                                723
 Number of independent orbital functions:                                    723

 *** WARNING in fm/cp_fm_elpa.F:521 :: Setting real_kernel for ELPA failed ***


 Extrapolation method: ASPC


 SCF WAVEFUNCTION OPTIMIZATION

  Step     Update method      Time    Convergence         Total energy    Change
  ------------------------------------------------------------------------------

 *** WARNING in fm/cp_fm_elpa.F:521 :: Setting real_kernel for ELPA failed ***

     1 Broy./Diag. 0.40E+00    1.1     0.07557268      -322.3367043327 -3.22E+02

 *** WARNING in fm/cp_fm_elpa.F:521 :: Setting real_kernel for ELPA failed ***

     2 Broy./Diag. 0.40E+00    1.5     0.00630834      -322.3551523267 -1.84E-02

 *** WARNING in fm/cp_fm_elpa.F:521 :: Setting real_kernel for ELPA failed ***

     3 Broy./Diag. 0.40E+00    1.6     0.00194519      -322.3433582004  1.18E-02

 *** WARNING in fm/cp_fm_elpa.F:521 :: Setting real_kernel for ELPA failed ***

     4 Broy./Diag. 0.40E+00    1.6     0.00135288      -322.3484890978 -5.13E-03

 *** WARNING in fm/cp_fm_elpa.F:521 :: Setting real_kernel for ELPA failed ***

     5 Broy./Diag. 0.40E+00    1.6     0.00025079      -322.3465567467  1.93E-03

 *** WARNING in fm/cp_fm_elpa.F:521 :: Setting real_kernel for ELPA failed ***

     6 Broy./Diag. 0.40E+00    1.6     0.00011558      -322.3481721209 -1.62E-03

 *** WARNING in fm/cp_fm_elpa.F:521 :: Setting real_kernel for ELPA failed ***

     7 Broy./Diag. 0.40E+00    1.7     0.00009602      -322.3484855727 -3.13E-04

 *** WARNING in fm/cp_fm_elpa.F:521 :: Setting real_kernel for ELPA failed ***

     8 Broy./Diag. 0.40E+00    1.7     0.00008396      -322.3487962713 -3.11E-04

 *** WARNING in fm/cp_fm_elpa.F:521 :: Setting real_kernel for ELPA failed ***

     9 Broy./Diag. 0.40E+00    1.7     0.00003934      -322.3490328351 -2.37E-04

 *** WARNING in fm/cp_fm_elpa.F:521 :: Setting real_kernel for ELPA failed ***

    10 Broy./Diag. 0.40E+00    1.8     0.00004584      -322.3493366289 -3.04E-04

 *** WARNING in fm/cp_fm_elpa.F:521 :: Setting real_kernel for ELPA failed ***

    11 Broy./Diag. 0.40E+00    1.8     0.00002427      -322.3493227856  1.38E-05

 *** WARNING in fm/cp_fm_elpa.F:521 :: Setting real_kernel for ELPA failed ***

    12 Broy./Diag. 0.40E+00    1.8     0.00001407      -322.3492277935  9.50E-05

 *** WARNING in fm/cp_fm_elpa.F:521 :: Setting real_kernel for ELPA failed ***

    13 Broy./Diag. 0.40E+00    1.8     0.00001085      -322.3491971611  3.06E-05

 *** WARNING in fm/cp_fm_elpa.F:521 :: Setting real_kernel for ELPA failed ***

    14 Broy./Diag. 0.40E+00    1.8     0.00000400      -322.3492252753 -2.81E-05

 *** WARNING in fm/cp_fm_elpa.F:521 :: Setting real_kernel for ELPA failed ***

    15 Broy./Diag. 0.40E+00    1.8     0.00000193      -322.3492283252 -3.05E-06

 *** WARNING in fm/cp_fm_elpa.F:521 :: Setting real_kernel for ELPA failed ***

    16 Broy./Diag. 0.40E+00    1.8     0.00000085      -322.3492345168 -6.19E-06

  *** SCF run converged in    16 steps ***


  Electronic density on regular grids:       -217.9999999988        0.0000000012
  Core density on regular grids:              219.9999999998       -0.0000000002
  Total charge density on r-space grids:        2.0000000010
  Total charge density g-space grids:           2.0000000010

  Overlap energy of the core charge distribution:               0.00001406898884
  Self energy of the core charge distribution:               -766.83425392616255
  Core Hamiltonian energy:                                    231.13348914932169
  Hartree energy:                                             308.93328600770269
  Exchange-correlation energy:                                -95.46459047094305
  Dispersion energy:                                           -0.11717934565888
  Electronic entropic energy:                                  -0.00000000000000
  Fermi energy:                                                -0.26478710777708

  Total energy:                                              -322.34923451675121

 ENERGY| Total FORCE_EVAL ( QS ) energy [hartree]           -322.349257036487131

 OPT| **************************************************************************
 OPT| Step number                                                             42
 OPT| Optimization method                                                   BFGS
 OPT| Total energy [hartree]                                     -322.3492570365
 OPT| Effective energy change [hartree]                            -0.0003037358
 OPT| Predicted energy change [hartree]                            -0.0003212897
 OPT| Scaling factor                                                0.6759738465
 OPT| Step size                                                     0.2938382035
 OPT| Trust radius                                                  0.3779452266
 OPT| Decrease in energy                                                     YES
 OPT| Used time [s]                                                       28.765
 OPT|
 OPT| Maximum step size                                             0.2938382035
 OPT| Convergence limit for maximum step size                       0.0030000000
 OPT| Maximum step size is converged                                          NO
 OPT|
 OPT| RMS step size                                                 0.0407370777
 OPT| Convergence limit for RMS step size                           0.0015000000
 OPT| RMS step size is converged                                              NO
 OPT|
 OPT| Maximum gradient                                              0.0020643155
 OPT| Convergence limit for maximum gradient                        0.0004500000
 OPT| Maximum gradient is converged                                           NO
 OPT|
 OPT| RMS gradient                                                  0.0004542950
 OPT| Convergence limit for RMS gradient                            0.0003000000
 OPT| RMS gradient is converged                                               NO
 OPT| **************************************************************************
 OPT| Estimated peak process memory after this step [MiB]                    716

 --------------------------
 OPTIMIZATION STEP:     43
 --------------------------

 *** WARNING in fm/cp_fm_elpa.F:521 :: Setting real_kernel for ELPA failed ***


 Number of electrons:                                                        218
 Number of occupied orbitals:                                                109
 Number of molecular orbitals:                                               146

 Number of orbital functions:                                                723
 Number of independent orbital functions:                                    723

 *** WARNING in fm/cp_fm_elpa.F:521 :: Setting real_kernel for ELPA failed ***


 Extrapolation method: ASPC


 SCF WAVEFUNCTION OPTIMIZATION

  Step     Update method      Time    Convergence         Total energy    Change
  ------------------------------------------------------------------------------

 *** WARNING in fm/cp_fm_elpa.F:521 :: Setting real_kernel for ELPA failed ***

     1 Broy./Diag. 0.40E+00    1.1     0.07569935      -322.3309148663 -3.22E+02

 *** WARNING in fm/cp_fm_elpa.F:521 :: Setting real_kernel for ELPA failed ***

     2 Broy./Diag. 0.40E+00    1.5     0.00553206      -322.4133858379 -8.25E-02

 *** WARNING in fm/cp_fm_elpa.F:521 :: Setting real_kernel for ELPA failed ***

     3 Broy./Diag. 0.40E+00    1.6     0.00255969      -322.3648468636  4.85E-02

 *** WARNING in fm/cp_fm_elpa.F:521 :: Setting real_kernel for ELPA failed ***

     4 Broy./Diag. 0.40E+00    1.6     0.00087536      -322.3491906347  1.57E-02

 *** WARNING in fm/cp_fm_elpa.F:521 :: Setting real_kernel for ELPA failed ***

     5 Broy./Diag. 0.40E+00    1.6     0.00026038      -322.3482658984  9.25E-04

 *** WARNING in fm/cp_fm_elpa.F:521 :: Setting real_kernel for ELPA failed ***

     6 Broy./Diag. 0.40E+00    1.6     0.00009019      -322.3493310949 -1.07E-03

 *** WARNING in fm/cp_fm_elpa.F:521 :: Setting real_kernel for ELPA failed ***

     7 Broy./Diag. 0.40E+00    1.7     0.00007058      -322.3495599338 -2.29E-04

 *** WARNING in fm/cp_fm_elpa.F:521 :: Setting real_kernel for ELPA failed ***

     8 Broy./Diag. 0.40E+00    1.7     0.00007916      -322.3492872178  2.73E-04

 *** WARNING in fm/cp_fm_elpa.F:521 :: Setting real_kernel for ELPA failed ***

     9 Broy./Diag. 0.40E+00    1.7     0.00004294      -322.3492194943  6.77E-05

 *** WARNING in fm/cp_fm_elpa.F:521 :: Setting real_kernel for ELPA failed ***

    10 Broy./Diag. 0.40E+00    1.8     0.00003298      -322.3493216317 -1.02E-04

 *** WARNING in fm/cp_fm_elpa.F:521 :: Setting real_kernel for ELPA failed ***

    11 Broy./Diag. 0.40E+00    1.8     0.00001761      -322.3493270111 -5.38E-06

 *** WARNING in fm/cp_fm_elpa.F:521 :: Setting real_kernel for ELPA failed ***

    12 Broy./Diag. 0.40E+00    1.8     0.00000821      -322.3493860967 -5.91E-05

 *** WARNING in fm/cp_fm_elpa.F:521 :: Setting real_kernel for ELPA failed ***

    13 Broy./Diag. 0.40E+00    1.8     0.00000650      -322.3493943058 -8.21E-06

 *** WARNING in fm/cp_fm_elpa.F:521 :: Setting real_kernel for ELPA failed ***

    14 Broy./Diag. 0.40E+00    1.8     0.00000560      -322.3494164933 -2.22E-05

 *** WARNING in fm/cp_fm_elpa.F:521 :: Setting real_kernel for ELPA failed ***

    15 Broy./Diag. 0.40E+00    1.8     0.00000376      -322.3493869925  2.95E-05

 *** WARNING in fm/cp_fm_elpa.F:521 :: Setting real_kernel for ELPA failed ***

    16 Broy./Diag. 0.40E+00    1.8     0.00000185      -322.3493715321  1.55E-05

 *** WARNING in fm/cp_fm_elpa.F:521 :: Setting real_kernel for ELPA failed ***

    17 Broy./Diag. 0.40E+00    1.8     0.00000093      -322.3493645209  7.01E-06

  *** SCF run converged in    17 steps ***


  Electronic density on regular grids:       -217.9999999988        0.0000000012
  Core density on regular grids:              219.9999999998       -0.0000000002
  Total charge density on r-space grids:        2.0000000010
  Total charge density g-space grids:           2.0000000010

  Overlap energy of the core charge distribution:               0.00001410246206
  Self energy of the core charge distribution:               -766.83425392616255
  Core Hamiltonian energy:                                    231.13284610933309
  Hartree energy:                                             308.93401229060703
  Exchange-correlation energy:                                -95.46481101226242
  Dispersion energy:                                           -0.11717208485674
  Electronic entropic energy:                                  -0.00000000000000
  Fermi energy:                                                -0.26493025837900

  Total energy:                                              -322.34936452087959

 ENERGY| Total FORCE_EVAL ( QS ) energy [hartree]           -322.349335419710087

 OPT| **************************************************************************
 OPT| Step number                                                             43
 OPT| Optimization method                                                   BFGS
 OPT| Total energy [hartree]                                     -322.3493354197
 OPT| Effective energy change [hartree]                            -0.0000783832
 OPT| Predicted energy change [hartree]                            -0.0000653909
 OPT| Scaling factor                                                0.6759738465
 OPT| Step size                                                     0.0323479358
 OPT| Trust radius                                                  0.3779452266
 OPT| Decrease in energy                                                     YES
 OPT| Used time [s]                                                       30.473
 OPT|
 OPT| Maximum step size                                             0.0323479358
 OPT| Convergence limit for maximum step size                       0.0030000000
 OPT| Maximum step size is converged                                          NO
 OPT|
 OPT| RMS step size                                                 0.0048670604
 OPT| Convergence limit for RMS step size                           0.0015000000
 OPT| RMS step size is converged                                              NO
 OPT|
 OPT| Maximum gradient                                              0.0007832691
 OPT| Convergence limit for maximum gradient                        0.0004500000
 OPT| Maximum gradient is converged                                           NO
 OPT|
 OPT| RMS gradient                                                  0.0002353269
 OPT| Convergence limit for RMS gradient                            0.0003000000
 OPT| RMS gradient is converged                                              YES
 OPT| **************************************************************************
 OPT| Estimated peak process memory after this step [MiB]                    716

 --------------------------
 OPTIMIZATION STEP:     44
 --------------------------

 *** WARNING in fm/cp_fm_elpa.F:521 :: Setting real_kernel for ELPA failed ***


 Number of electrons:                                                        218
 Number of occupied orbitals:                                                109
 Number of molecular orbitals:                                               146

 Number of orbital functions:                                                723
 Number of independent orbital functions:                                    723

 *** WARNING in fm/cp_fm_elpa.F:521 :: Setting real_kernel for ELPA failed ***


 Extrapolation method: ASPC


 SCF WAVEFUNCTION OPTIMIZATION

  Step     Update method      Time    Convergence         Total energy    Change
  ------------------------------------------------------------------------------

 *** WARNING in fm/cp_fm_elpa.F:521 :: Setting real_kernel for ELPA failed ***

     1 Broy./Diag. 0.40E+00    1.1     0.04276593      -322.3428988040 -3.22E+02

 *** WARNING in fm/cp_fm_elpa.F:521 :: Setting real_kernel for ELPA failed ***

     2 Broy./Diag. 0.40E+00    1.5     0.00432860      -322.3068885039  3.60E-02

 *** WARNING in fm/cp_fm_elpa.F:521 :: Setting real_kernel for ELPA failed ***

     3 Broy./Diag. 0.40E+00    1.6     0.00149819      -322.3404406411 -3.36E-02

 *** WARNING in fm/cp_fm_elpa.F:521 :: Setting real_kernel for ELPA failed ***

     4 Broy./Diag. 0.40E+00    1.6     0.00068245      -322.3483986399 -7.96E-03

 *** WARNING in fm/cp_fm_elpa.F:521 :: Setting real_kernel for ELPA failed ***

     5 Broy./Diag. 0.40E+00    1.6     0.00030412      -322.3503954267 -2.00E-03

 *** WARNING in fm/cp_fm_elpa.F:521 :: Setting real_kernel for ELPA failed ***

     6 Broy./Diag. 0.40E+00    1.6     0.00008822      -322.3491778297  1.22E-03

 *** WARNING in fm/cp_fm_elpa.F:521 :: Setting real_kernel for ELPA failed ***

     7 Broy./Diag. 0.40E+00    1.7     0.00006846      -322.3492816498 -1.04E-04

 *** WARNING in fm/cp_fm_elpa.F:521 :: Setting real_kernel for ELPA failed ***

     8 Broy./Diag. 0.40E+00    1.7     0.00007406      -322.3493995230 -1.18E-04

 *** WARNING in fm/cp_fm_elpa.F:521 :: Setting real_kernel for ELPA failed ***

     9 Broy./Diag. 0.40E+00    1.7     0.00003472      -322.3495046382 -1.05E-04

 *** WARNING in fm/cp_fm_elpa.F:521 :: Setting real_kernel for ELPA failed ***

    10 Broy./Diag. 0.40E+00    1.8     0.00002742      -322.3494412271  6.34E-05

 *** WARNING in fm/cp_fm_elpa.F:521 :: Setting real_kernel for ELPA failed ***

    11 Broy./Diag. 0.40E+00    1.8     0.00001953      -322.3494156591  2.56E-05

 *** WARNING in fm/cp_fm_elpa.F:521 :: Setting real_kernel for ELPA failed ***

    12 Broy./Diag. 0.40E+00    1.8     0.00001247      -322.3493901354  2.55E-05

 *** WARNING in fm/cp_fm_elpa.F:521 :: Setting real_kernel for ELPA failed ***

    13 Broy./Diag. 0.40E+00    1.8     0.00000853      -322.3493768075  1.33E-05

 *** WARNING in fm/cp_fm_elpa.F:521 :: Setting real_kernel for ELPA failed ***

    14 Broy./Diag. 0.40E+00    1.8     0.00000603      -322.3493663919  1.04E-05

 *** WARNING in fm/cp_fm_elpa.F:521 :: Setting real_kernel for ELPA failed ***

    15 Broy./Diag. 0.40E+00    1.8     0.00000416      -322.3493824791 -1.61E-05

 *** WARNING in fm/cp_fm_elpa.F:521 :: Setting real_kernel for ELPA failed ***

    16 Broy./Diag. 0.40E+00    1.8     0.00000162      -322.3493910928 -8.61E-06

 *** WARNING in fm/cp_fm_elpa.F:521 :: Setting real_kernel for ELPA failed ***

    17 Broy./Diag. 0.40E+00    1.8     0.00000078      -322.3493951954 -4.10E-06

  *** SCF run converged in    17 steps ***


  Electronic density on regular grids:       -217.9999999988        0.0000000012
  Core density on regular grids:              219.9999999998       -0.0000000002
  Total charge density on r-space grids:        2.0000000010
  Total charge density g-space grids:           2.0000000010

  Overlap energy of the core charge distribution:               0.00001413931180
  Self energy of the core charge distribution:               -766.83425392616255
  Core Hamiltonian energy:                                    231.13986498965266
  Hartree energy:                                             308.92904846199451
  Exchange-correlation energy:                                -95.46691406823327
  Dispersion energy:                                           -0.11715479192888
  Electronic entropic energy:                                  -0.00000000000000
  Fermi energy:                                                -0.26500094733480

  Total energy:                                              -322.34939519536573

 ENERGY| Total FORCE_EVAL ( QS ) energy [hartree]           -322.349410602171702

 OPT| **************************************************************************
 OPT| Step number                                                             44
 OPT| Optimization method                                                   BFGS
 OPT| Total energy [hartree]                                     -322.3494106022
 OPT| Effective energy change [hartree]                            -0.0000751825
 OPT| Predicted energy change [hartree]                            -0.0000654476
 OPT| Scaling factor                                                0.6759738465
 OPT| Step size                                                     0.0684408669
 OPT| Trust radius                                                  0.3779452266
 OPT| Decrease in energy                                                     YES
 OPT| Used time [s]                                                       30.499
 OPT|
 OPT| Maximum step size                                             0.0684408669
 OPT| Convergence limit for maximum step size                       0.0030000000
 OPT| Maximum step size is converged                                          NO
 OPT|
 OPT| RMS step size                                                 0.0120180956
 OPT| Convergence limit for RMS step size                           0.0015000000
 OPT| RMS step size is converged                                              NO
 OPT|
 OPT| Maximum gradient                                              0.0006920283
 OPT| Convergence limit for maximum gradient                        0.0004500000
 OPT| Maximum gradient is converged                                           NO
 OPT|
 OPT| RMS gradient                                                  0.0001891605
 OPT| Convergence limit for RMS gradient                            0.0003000000
 OPT| RMS gradient is converged                                              YES
 OPT| **************************************************************************
 OPT| Estimated peak process memory after this step [MiB]                    716

 --------------------------
 OPTIMIZATION STEP:     45
 --------------------------

 *** WARNING in fm/cp_fm_elpa.F:521 :: Setting real_kernel for ELPA failed ***


 Number of electrons:                                                        218
 Number of occupied orbitals:                                                109
 Number of molecular orbitals:                                               146

 Number of orbital functions:                                                723
 Number of independent orbital functions:                                    723

 *** WARNING in fm/cp_fm_elpa.F:521 :: Setting real_kernel for ELPA failed ***


 Extrapolation method: ASPC


 SCF WAVEFUNCTION OPTIMIZATION

  Step     Update method      Time    Convergence         Total energy    Change
  ------------------------------------------------------------------------------

 *** WARNING in fm/cp_fm_elpa.F:521 :: Setting real_kernel for ELPA failed ***

     1 Broy./Diag. 0.40E+00    1.1     0.00888014      -322.3490122393 -3.22E+02

 *** WARNING in fm/cp_fm_elpa.F:521 :: Setting real_kernel for ELPA failed ***

     2 Broy./Diag. 0.40E+00    1.5     0.00151591      -322.3686021004 -1.96E-02

 *** WARNING in fm/cp_fm_elpa.F:521 :: Setting real_kernel for ELPA failed ***

     3 Broy./Diag. 0.40E+00    1.6     0.00038795      -322.3542803701  1.43E-02

 *** WARNING in fm/cp_fm_elpa.F:521 :: Setting real_kernel for ELPA failed ***

     4 Broy./Diag. 0.40E+00    1.6     0.00019554      -322.3493561879  4.92E-03

 *** WARNING in fm/cp_fm_elpa.F:521 :: Setting real_kernel for ELPA failed ***

     5 Broy./Diag. 0.40E+00    1.6     0.00008954      -322.3488856415  4.71E-04

 *** WARNING in fm/cp_fm_elpa.F:521 :: Setting real_kernel for ELPA failed ***

     6 Broy./Diag. 0.40E+00    1.6     0.00002515      -322.3493650821 -4.79E-04

 *** WARNING in fm/cp_fm_elpa.F:521 :: Setting real_kernel for ELPA failed ***

     7 Broy./Diag. 0.40E+00    1.7     0.00001026      -322.3495486866 -1.84E-04

 *** WARNING in fm/cp_fm_elpa.F:521 :: Setting real_kernel for ELPA failed ***

     8 Broy./Diag. 0.40E+00    1.7     0.00001116      -322.3494899282  5.88E-05

 *** WARNING in fm/cp_fm_elpa.F:521 :: Setting real_kernel for ELPA failed ***

     9 Broy./Diag. 0.40E+00    1.7     0.00000534      -322.3494570285  3.29E-05

 *** WARNING in fm/cp_fm_elpa.F:521 :: Setting real_kernel for ELPA failed ***

    10 Broy./Diag. 0.40E+00    1.8     0.00000402      -322.3494594983 -2.47E-06

 *** WARNING in fm/cp_fm_elpa.F:521 :: Setting real_kernel for ELPA failed ***

    11 Broy./Diag. 0.40E+00    1.8     0.00000273      -322.3494799679 -2.05E-05

 *** WARNING in fm/cp_fm_elpa.F:521 :: Setting real_kernel for ELPA failed ***

    12 Broy./Diag. 0.40E+00    1.8     0.00000141      -322.3494741937  5.77E-06

 *** WARNING in fm/cp_fm_elpa.F:521 :: Setting real_kernel for ELPA failed ***

    13 Broy./Diag. 0.40E+00    1.8     0.00000116      -322.3494738886  3.05E-07

 *** WARNING in fm/cp_fm_elpa.F:521 :: Setting real_kernel for ELPA failed ***

    14 Broy./Diag. 0.40E+00    1.8     0.00000076      -322.3494746336 -7.45E-07

  *** SCF run converged in    14 steps ***


  Electronic density on regular grids:       -217.9999999988        0.0000000012
  Core density on regular grids:              219.9999999998       -0.0000000002
  Total charge density on r-space grids:        2.0000000010
  Total charge density g-space grids:           2.0000000010

  Overlap energy of the core charge distribution:               0.00001416193070
  Self energy of the core charge distribution:               -766.83425392616255
  Core Hamiltonian energy:                                    231.14700663349396
  Hartree energy:                                             308.92408679328747
  Exchange-correlation energy:                                -95.46914292199205
  Dispersion energy:                                           -0.11718537414546
  Electronic entropic energy:                                  -0.00000000000000
  Fermi energy:                                                -0.26509156395596

  Total energy:                                              -322.34947463358793

 ENERGY| Total FORCE_EVAL ( QS ) energy [hartree]           -322.349468877039669

 OPT| **************************************************************************
 OPT| Step number                                                             45
 OPT| Optimization method                                                   BFGS
 OPT| Total energy [hartree]                                     -322.3494688770
 OPT| Effective energy change [hartree]                            -0.0000582749
 OPT| Predicted energy change [hartree]                            -0.0000377944
 OPT| Scaling factor                                                0.6759738465
 OPT| Step size                                                     0.0207838784
 OPT| Trust radius                                                  0.3779452266
 OPT| Decrease in energy                                                     YES
 OPT| Used time [s]                                                       25.184
 OPT|
 OPT| Maximum step size                                             0.0207838784
 OPT| Convergence limit for maximum step size                       0.0030000000
 OPT| Maximum step size is converged                                          NO
 OPT|
 OPT| RMS step size                                                 0.0043851313
 OPT| Convergence limit for RMS step size                           0.0015000000
 OPT| RMS step size is converged                                              NO
 OPT|
 OPT| Maximum gradient                                              0.0008642092
 OPT| Convergence limit for maximum gradient                        0.0004500000
 OPT| Maximum gradient is converged                                           NO
 OPT|
 OPT| RMS gradient                                                  0.0002266680
 OPT| Convergence limit for RMS gradient                            0.0003000000
 OPT| RMS gradient is converged                                              YES
 OPT| **************************************************************************
 OPT| Estimated peak process memory after this step [MiB]                    716

 --------------------------
 OPTIMIZATION STEP:     46
 --------------------------

 *** WARNING in fm/cp_fm_elpa.F:521 :: Setting real_kernel for ELPA failed ***


 Number of electrons:                                                        218
 Number of occupied orbitals:                                                109
 Number of molecular orbitals:                                               146

 Number of orbital functions:                                                723
 Number of independent orbital functions:                                    723

 *** WARNING in fm/cp_fm_elpa.F:521 :: Setting real_kernel for ELPA failed ***


 Extrapolation method: ASPC


 SCF WAVEFUNCTION OPTIMIZATION

  Step     Update method      Time    Convergence         Total energy    Change
  ------------------------------------------------------------------------------

 *** WARNING in fm/cp_fm_elpa.F:521 :: Setting real_kernel for ELPA failed ***

     1 Broy./Diag. 0.40E+00    1.1     0.01437617      -322.3488481683 -3.22E+02

 *** WARNING in fm/cp_fm_elpa.F:521 :: Setting real_kernel for ELPA failed ***

     2 Broy./Diag. 0.40E+00    1.5     0.00099016      -322.3563505039 -7.50E-03

 *** WARNING in fm/cp_fm_elpa.F:521 :: Setting real_kernel for ELPA failed ***

     3 Broy./Diag. 0.40E+00    1.6     0.00043507      -322.3497835422  6.57E-03

 *** WARNING in fm/cp_fm_elpa.F:521 :: Setting real_kernel for ELPA failed ***

     4 Broy./Diag. 0.40E+00    1.6     0.00019488      -322.3497102727  7.33E-05

 *** WARNING in fm/cp_fm_elpa.F:521 :: Setting real_kernel for ELPA failed ***

     5 Broy./Diag. 0.40E+00    1.6     0.00006320      -322.3493996957  3.11E-04

 *** WARNING in fm/cp_fm_elpa.F:521 :: Setting real_kernel for ELPA failed ***

     6 Broy./Diag. 0.40E+00    1.6     0.00003175      -322.3496296281 -2.30E-04

 *** WARNING in fm/cp_fm_elpa.F:521 :: Setting real_kernel for ELPA failed ***

     7 Broy./Diag. 0.40E+00    1.7     0.00001346      -322.3495585602  7.11E-05

 *** WARNING in fm/cp_fm_elpa.F:521 :: Setting real_kernel for ELPA failed ***

     8 Broy./Diag. 0.40E+00    1.7     0.00001295      -322.3495166609  4.19E-05

 *** WARNING in fm/cp_fm_elpa.F:521 :: Setting real_kernel for ELPA failed ***

     9 Broy./Diag. 0.40E+00    1.7     0.00000721      -322.3495287581 -1.21E-05

 *** WARNING in fm/cp_fm_elpa.F:521 :: Setting real_kernel for ELPA failed ***

    10 Broy./Diag. 0.40E+00    1.8     0.00000621      -322.3495640784 -3.53E-05

 *** WARNING in fm/cp_fm_elpa.F:521 :: Setting real_kernel for ELPA failed ***

    11 Broy./Diag. 0.40E+00    1.8     0.00000356      -322.3495644610 -3.83E-07

 *** WARNING in fm/cp_fm_elpa.F:521 :: Setting real_kernel for ELPA failed ***

    12 Broy./Diag. 0.40E+00    1.8     0.00000247      -322.3495694967 -5.04E-06

 *** WARNING in fm/cp_fm_elpa.F:521 :: Setting real_kernel for ELPA failed ***

    13 Broy./Diag. 0.40E+00    1.8     0.00000117      -322.3495681319  1.36E-06

 *** WARNING in fm/cp_fm_elpa.F:521 :: Setting real_kernel for ELPA failed ***

    14 Broy./Diag. 0.40E+00    1.8     0.00000121      -322.3495712068 -3.07E-06

 *** WARNING in fm/cp_fm_elpa.F:521 :: Setting real_kernel for ELPA failed ***

    15 Broy./Diag. 0.40E+00    1.8     0.00000088      -322.3495679777  3.23E-06

  *** SCF run converged in    15 steps ***


  Electronic density on regular grids:       -217.9999999988        0.0000000012
  Core density on regular grids:              219.9999999998       -0.0000000002
  Total charge density on r-space grids:        2.0000000010
  Total charge density g-space grids:           2.0000000010

  Overlap energy of the core charge distribution:               0.00001416972284
  Self energy of the core charge distribution:               -766.83425392616255
  Core Hamiltonian energy:                                    231.15600120530769
  Hartree energy:                                             308.91788846189888
  Exchange-correlation energy:                                -95.47197052522196
  Dispersion energy:                                           -0.11724736323039
  Electronic entropic energy:                                  -0.00000000000000
  Fermi energy:                                                -0.26520019763694

  Total energy:                                              -322.34956797768552

 ENERGY| Total FORCE_EVAL ( QS ) energy [hartree]           -322.349563295535745

 OPT| **************************************************************************
 OPT| Step number                                                             46
 OPT| Optimization method                                                   BFGS
 OPT| Total energy [hartree]                                     -322.3495632955
 OPT| Effective energy change [hartree]                            -0.0000944185
 OPT| Predicted energy change [hartree]                            -0.0000766146
 OPT| Scaling factor                                                0.6759738465
 OPT| Step size                                                     0.0517446199
 OPT| Trust radius                                                  0.3779452266
 OPT| Decrease in energy                                                     YES
 OPT| Used time [s]                                                       26.967
 OPT|
 OPT| Maximum step size                                             0.0517446199
 OPT| Convergence limit for maximum step size                       0.0030000000
 OPT| Maximum step size is converged                                          NO
 OPT|
 OPT| RMS step size                                                 0.0113972690
 OPT| Convergence limit for RMS step size                           0.0015000000
 OPT| RMS step size is converged                                              NO
 OPT|
 OPT| Maximum gradient                                              0.0014001052
 OPT| Convergence limit for maximum gradient                        0.0004500000
 OPT| Maximum gradient is converged                                           NO
 OPT|
 OPT| RMS gradient                                                  0.0003258809
 OPT| Convergence limit for RMS gradient                            0.0003000000
 OPT| RMS gradient is converged                                               NO
 OPT| **************************************************************************
 OPT| Estimated peak process memory after this step [MiB]                    716

 --------------------------
 OPTIMIZATION STEP:     47
 --------------------------

 *** WARNING in fm/cp_fm_elpa.F:521 :: Setting real_kernel for ELPA failed ***


 Number of electrons:                                                        218
 Number of occupied orbitals:                                                109
 Number of molecular orbitals:                                               146

 Number of orbital functions:                                                723
 Number of independent orbital functions:                                    723

 *** WARNING in fm/cp_fm_elpa.F:521 :: Setting real_kernel for ELPA failed ***


 Extrapolation method: ASPC


 SCF WAVEFUNCTION OPTIMIZATION

  Step     Update method      Time    Convergence         Total energy    Change
  ------------------------------------------------------------------------------

 *** WARNING in fm/cp_fm_elpa.F:521 :: Setting real_kernel for ELPA failed ***

     1 Broy./Diag. 0.40E+00    1.1     0.01292358      -322.3488184774 -3.22E+02

 *** WARNING in fm/cp_fm_elpa.F:521 :: Setting real_kernel for ELPA failed ***

     2 Broy./Diag. 0.40E+00    1.5     0.00165833      -322.3537604322 -4.94E-03

 *** WARNING in fm/cp_fm_elpa.F:521 :: Setting real_kernel for ELPA failed ***

     3 Broy./Diag. 0.40E+00    1.6     0.00117233      -322.3510795749  2.68E-03

 *** WARNING in fm/cp_fm_elpa.F:521 :: Setting real_kernel for ELPA failed ***

     4 Broy./Diag. 0.40E+00    1.6     0.00057983      -322.3483672841  2.71E-03

 *** WARNING in fm/cp_fm_elpa.F:521 :: Setting real_kernel for ELPA failed ***

     5 Broy./Diag. 0.40E+00    1.6     0.00010700      -322.3496442673 -1.28E-03

 *** WARNING in fm/cp_fm_elpa.F:521 :: Setting real_kernel for ELPA failed ***

     6 Broy./Diag. 0.40E+00    1.6     0.00003231      -322.3496305501  1.37E-05

 *** WARNING in fm/cp_fm_elpa.F:521 :: Setting real_kernel for ELPA failed ***

     7 Broy./Diag. 0.40E+00    1.7     0.00001294      -322.3496967283 -6.62E-05

 *** WARNING in fm/cp_fm_elpa.F:521 :: Setting real_kernel for ELPA failed ***

     8 Broy./Diag. 0.40E+00    1.7     0.00001076      -322.3495904278  1.06E-04

 *** WARNING in fm/cp_fm_elpa.F:521 :: Setting real_kernel for ELPA failed ***

     9 Broy./Diag. 0.40E+00    1.7     0.00000635      -322.3496085053 -1.81E-05

 *** WARNING in fm/cp_fm_elpa.F:521 :: Setting real_kernel for ELPA failed ***

    10 Broy./Diag. 0.40E+00    1.8     0.00000525      -322.3496256353 -1.71E-05

 *** WARNING in fm/cp_fm_elpa.F:521 :: Setting real_kernel for ELPA failed ***

    11 Broy./Diag. 0.40E+00    1.8     0.00000420      -322.3496265128 -8.78E-07

 *** WARNING in fm/cp_fm_elpa.F:521 :: Setting real_kernel for ELPA failed ***

    12 Broy./Diag. 0.40E+00    1.8     0.00000258      -322.3496188946  7.62E-06

 *** WARNING in fm/cp_fm_elpa.F:521 :: Setting real_kernel for ELPA failed ***

    13 Broy./Diag. 0.40E+00    1.8     0.00000162      -322.3496218373 -2.94E-06

 *** WARNING in fm/cp_fm_elpa.F:521 :: Setting real_kernel for ELPA failed ***

    14 Broy./Diag. 0.40E+00    1.7     0.00000113      -322.3496231165 -1.28E-06

 *** WARNING in fm/cp_fm_elpa.F:521 :: Setting real_kernel for ELPA failed ***

    15 Broy./Diag. 0.40E+00    1.7     0.00000094      -322.3496215856  1.53E-06

  *** SCF run converged in    15 steps ***


  Electronic density on regular grids:       -217.9999999988        0.0000000012
  Core density on regular grids:              219.9999999998       -0.0000000002
  Total charge density on r-space grids:        2.0000000010
  Total charge density g-space grids:           2.0000000010

  Overlap energy of the core charge distribution:               0.00001413538192
  Self energy of the core charge distribution:               -766.83425392616255
  Core Hamiltonian energy:                                    231.15309407124954
  Hartree energy:                                             308.91993693465849
  Exchange-correlation energy:                                -95.47114436532134
  Dispersion energy:                                           -0.11726843545499
  Electronic entropic energy:                                  -0.00000000000000
  Fermi energy:                                                -0.26511115583786

  Total energy:                                              -322.34962158564889

 ENERGY| Total FORCE_EVAL ( QS ) energy [hartree]           -322.349619271662618

 OPT| **************************************************************************
 OPT| Step number                                                             47
 OPT| Optimization method                                                   BFGS
 OPT| Total energy [hartree]                                     -322.3496192717
 OPT| Effective energy change [hartree]                            -0.0000559761
 OPT| Predicted energy change [hartree]                            -0.0000554873
 OPT| Scaling factor                                                0.6759738465
 OPT| Step size                                                     0.0726996946
 OPT| Trust radius                                                  0.3779452266
 OPT| Decrease in energy                                                     YES
 OPT| Used time [s]                                                       26.792
 OPT|
 OPT| Maximum step size                                             0.0726996946
 OPT| Convergence limit for maximum step size                       0.0030000000
 OPT| Maximum step size is converged                                          NO
 OPT|
 OPT| RMS step size                                                 0.0129827491
 OPT| Convergence limit for RMS step size                           0.0015000000
 OPT| RMS step size is converged                                              NO
 OPT|
 OPT| Maximum gradient                                              0.0012593096
 OPT| Convergence limit for maximum gradient                        0.0004500000
 OPT| Maximum gradient is converged                                           NO
 OPT|
 OPT| RMS gradient                                                  0.0003081439
 OPT| Convergence limit for RMS gradient                            0.0003000000
 OPT| RMS gradient is converged                                               NO
 OPT| **************************************************************************
 OPT| Estimated peak process memory after this step [MiB]                    716

 --------------------------
 OPTIMIZATION STEP:     48
 --------------------------

 *** WARNING in fm/cp_fm_elpa.F:521 :: Setting real_kernel for ELPA failed ***


 Number of electrons:                                                        218
 Number of occupied orbitals:                                                109
 Number of molecular orbitals:                                               146

 Number of orbital functions:                                                723
 Number of independent orbital functions:                                    723

 *** WARNING in fm/cp_fm_elpa.F:521 :: Setting real_kernel for ELPA failed ***


 Extrapolation method: ASPC


 SCF WAVEFUNCTION OPTIMIZATION

  Step     Update method      Time    Convergence         Total energy    Change
  ------------------------------------------------------------------------------

 *** WARNING in fm/cp_fm_elpa.F:521 :: Setting real_kernel for ELPA failed ***

     1 Broy./Diag. 0.40E+00    1.1     0.00586069      -322.3492452055 -3.22E+02

 *** WARNING in fm/cp_fm_elpa.F:521 :: Setting real_kernel for ELPA failed ***

     2 Broy./Diag. 0.40E+00    1.5     0.00159695      -322.3445026535  4.74E-03

 *** WARNING in fm/cp_fm_elpa.F:521 :: Setting real_kernel for ELPA failed ***

     3 Broy./Diag. 0.40E+00    1.6     0.00070221      -322.3490574741 -4.55E-03

 *** WARNING in fm/cp_fm_elpa.F:521 :: Setting real_kernel for ELPA failed ***

     4 Broy./Diag. 0.40E+00    1.6     0.00040700      -322.3495420110 -4.85E-04

 *** WARNING in fm/cp_fm_elpa.F:521 :: Setting real_kernel for ELPA failed ***

     5 Broy./Diag. 0.40E+00    1.6     0.00006451      -322.3500256213 -4.84E-04

 *** WARNING in fm/cp_fm_elpa.F:521 :: Setting real_kernel for ELPA failed ***

     6 Broy./Diag. 0.40E+00    1.6     0.00001359      -322.3497812925  2.44E-04

 *** WARNING in fm/cp_fm_elpa.F:521 :: Setting real_kernel for ELPA failed ***

     7 Broy./Diag. 0.40E+00    1.7     0.00000570      -322.3497716923  9.60E-06

 *** WARNING in fm/cp_fm_elpa.F:521 :: Setting real_kernel for ELPA failed ***

     8 Broy./Diag. 0.40E+00    1.7     0.00000575      -322.3497292345  4.25E-05

 *** WARNING in fm/cp_fm_elpa.F:521 :: Setting real_kernel for ELPA failed ***

     9 Broy./Diag. 0.40E+00    1.7     0.00000451      -322.3497117160  1.75E-05

 *** WARNING in fm/cp_fm_elpa.F:521 :: Setting real_kernel for ELPA failed ***

    10 Broy./Diag. 0.40E+00    1.8     0.00000356      -322.3496837340  2.80E-05

 *** WARNING in fm/cp_fm_elpa.F:521 :: Setting real_kernel for ELPA failed ***

    11 Broy./Diag. 0.40E+00    1.8     0.00000186      -322.3496786652  5.07E-06

 *** WARNING in fm/cp_fm_elpa.F:521 :: Setting real_kernel for ELPA failed ***

    12 Broy./Diag. 0.40E+00    1.8     0.00000115      -322.3496726498  6.02E-06

 *** WARNING in fm/cp_fm_elpa.F:521 :: Setting real_kernel for ELPA failed ***

    13 Broy./Diag. 0.40E+00    1.8     0.00000058      -322.3496675894  5.06E-06

  *** SCF run converged in    13 steps ***


  Electronic density on regular grids:       -217.9999999988        0.0000000012
  Core density on regular grids:              219.9999999998       -0.0000000002
  Total charge density on r-space grids:        2.0000000010
  Total charge density g-space grids:           2.0000000010

  Overlap energy of the core charge distribution:               0.00001410560675
  Self energy of the core charge distribution:               -766.83425392616255
  Core Hamiltonian energy:                                    231.14617409396129
  Hartree energy:                                             308.92469362004874
  Exchange-correlation energy:                                -95.46904496720998
  Dispersion energy:                                           -0.11725051562865
  Electronic entropic energy:                                  -0.00000000000000
  Fermi energy:                                                -0.26499095256781

  Total energy:                                              -322.34966758938435

 ENERGY| Total FORCE_EVAL ( QS ) energy [hartree]           -322.349663500242457

 OPT| **************************************************************************
 OPT| Step number                                                             48
 OPT| Optimization method                                                   BFGS
 OPT| Total energy [hartree]                                     -322.3496635002
 OPT| Effective energy change [hartree]                            -0.0000442286
 OPT| Predicted energy change [hartree]                            -0.0000304710
 OPT| Scaling factor                                                0.6759738465
 OPT| Step size                                                     0.0384970024
 OPT| Trust radius                                                  0.3779452266
 OPT| Decrease in energy                                                     YES
 OPT| Used time [s]                                                       23.407
 OPT|
 OPT| Maximum step size                                             0.0384970024
 OPT| Convergence limit for maximum step size                       0.0030000000
 OPT| Maximum step size is converged                                          NO
 OPT|
 OPT| RMS step size                                                 0.0062663584
 OPT| Convergence limit for RMS step size                           0.0015000000
 OPT| RMS step size is converged                                              NO
 OPT|
 OPT| Maximum gradient                                              0.0007550870
 OPT| Convergence limit for maximum gradient                        0.0004500000
 OPT| Maximum gradient is converged                                           NO
 OPT|
 OPT| RMS gradient                                                  0.0001857870
 OPT| Convergence limit for RMS gradient                            0.0003000000
 OPT| RMS gradient is converged                                              YES
 OPT| **************************************************************************
 OPT| Estimated peak process memory after this step [MiB]                    716

 --------------------------
 OPTIMIZATION STEP:     49
 --------------------------

 *** WARNING in fm/cp_fm_elpa.F:521 :: Setting real_kernel for ELPA failed ***


 Number of electrons:                                                        218
 Number of occupied orbitals:                                                109
 Number of molecular orbitals:                                               146

 Number of orbital functions:                                                723
 Number of independent orbital functions:                                    723

 *** WARNING in fm/cp_fm_elpa.F:521 :: Setting real_kernel for ELPA failed ***


 Extrapolation method: ASPC


 SCF WAVEFUNCTION OPTIMIZATION

  Step     Update method      Time    Convergence         Total energy    Change
  ------------------------------------------------------------------------------

 *** WARNING in fm/cp_fm_elpa.F:521 :: Setting real_kernel for ELPA failed ***

     1 Broy./Diag. 0.40E+00    1.1     0.01083757      -322.3488708283 -3.22E+02

 *** WARNING in fm/cp_fm_elpa.F:521 :: Setting real_kernel for ELPA failed ***

     2 Broy./Diag. 0.40E+00    1.5     0.00202681      -322.3463644935  2.51E-03

 *** WARNING in fm/cp_fm_elpa.F:521 :: Setting real_kernel for ELPA failed ***

     3 Broy./Diag. 0.40E+00    1.6     0.00045349      -322.3496905175 -3.33E-03

 *** WARNING in fm/cp_fm_elpa.F:521 :: Setting real_kernel for ELPA failed ***

     4 Broy./Diag. 0.40E+00    1.6     0.00028799      -322.3505657750 -8.75E-04

 *** WARNING in fm/cp_fm_elpa.F:521 :: Setting real_kernel for ELPA failed ***

     5 Broy./Diag. 0.40E+00    1.6     0.00010543      -322.3503931904  1.73E-04

 *** WARNING in fm/cp_fm_elpa.F:521 :: Setting real_kernel for ELPA failed ***

     6 Broy./Diag. 0.40E+00    1.6     0.00002857      -322.3501028709  2.90E-04

 *** WARNING in fm/cp_fm_elpa.F:521 :: Setting real_kernel for ELPA failed ***

     7 Broy./Diag. 0.40E+00    1.7     0.00002672      -322.3499380550  1.65E-04

 *** WARNING in fm/cp_fm_elpa.F:521 :: Setting real_kernel for ELPA failed ***

     8 Broy./Diag. 0.40E+00    1.7     0.00001602      -322.3498521024  8.60E-05

 *** WARNING in fm/cp_fm_elpa.F:521 :: Setting real_kernel for ELPA failed ***

     9 Broy./Diag. 0.40E+00    1.7     0.00001049      -322.3497632407  8.89E-05

 *** WARNING in fm/cp_fm_elpa.F:521 :: Setting real_kernel for ELPA failed ***

    10 Broy./Diag. 0.40E+00    1.8     0.00000751      -322.3497360995  2.71E-05

 *** WARNING in fm/cp_fm_elpa.F:521 :: Setting real_kernel for ELPA failed ***

    11 Broy./Diag. 0.40E+00    1.8     0.00000397      -322.3497168105  1.93E-05

 *** WARNING in fm/cp_fm_elpa.F:521 :: Setting real_kernel for ELPA failed ***

    12 Broy./Diag. 0.40E+00    1.8     0.00000294      -322.3497282944 -1.15E-05

 *** WARNING in fm/cp_fm_elpa.F:521 :: Setting real_kernel for ELPA failed ***

    13 Broy./Diag. 0.40E+00    1.8     0.00000175      -322.3497239661  4.33E-06

 *** WARNING in fm/cp_fm_elpa.F:521 :: Setting real_kernel for ELPA failed ***

    14 Broy./Diag. 0.40E+00    1.8     0.00000139      -322.3497239922 -2.61E-08

 *** WARNING in fm/cp_fm_elpa.F:521 :: Setting real_kernel for ELPA failed ***

    15 Broy./Diag. 0.40E+00    1.8     0.00000111      -322.3497230866  9.06E-07

 *** WARNING in fm/cp_fm_elpa.F:521 :: Setting real_kernel for ELPA failed ***

    16 Broy./Diag. 0.40E+00    1.8     0.00000071      -322.3497241080 -1.02E-06

  *** SCF run converged in    16 steps ***


  Electronic density on regular grids:       -217.9999999989        0.0000000011
  Core density on regular grids:              219.9999999998       -0.0000000002
  Total charge density on r-space grids:        2.0000000010
  Total charge density g-space grids:           2.0000000010

  Overlap energy of the core charge distribution:               0.00001407261389
  Self energy of the core charge distribution:               -766.83425392616255
  Core Hamiltonian energy:                                    231.13522439913714
  Hartree energy:                                             308.93213328679894
  Exchange-correlation energy:                                -95.46563772661412
  Dispersion energy:                                           -0.11720421377849
  Electronic entropic energy:                                  -0.00000000000000
  Fermi energy:                                                -0.26472825575256

  Total energy:                                              -322.34972410800509

 ENERGY| Total FORCE_EVAL ( QS ) energy [hartree]           -322.349718580315766

 OPT| **************************************************************************
 OPT| Step number                                                             49
 OPT| Optimization method                                                   BFGS
 OPT| Total energy [hartree]                                     -322.3497185803
 OPT| Effective energy change [hartree]                            -0.0000550801
 OPT| Predicted energy change [hartree]                            -0.0000480882
 OPT| Scaling factor                                                0.6759738465
 OPT| Step size                                                     0.0858933344
 OPT| Trust radius                                                  0.3779452266
 OPT| Decrease in energy                                                     YES
 OPT| Used time [s]                                                       28.689
 OPT|
 OPT| Maximum step size                                             0.0858933344
 OPT| Convergence limit for maximum step size                       0.0030000000
 OPT| Maximum step size is converged                                          NO
 OPT|
 OPT| RMS step size                                                 0.0146566459
 OPT| Convergence limit for RMS step size                           0.0015000000
 OPT| RMS step size is converged                                              NO
 OPT|
 OPT| Maximum gradient                                              0.0019607263
 OPT| Convergence limit for maximum gradient                        0.0004500000
 OPT| Maximum gradient is converged                                           NO
 OPT|
 OPT| RMS gradient                                                  0.0002776588
 OPT| Convergence limit for RMS gradient                            0.0003000000
 OPT| RMS gradient is converged                                              YES
 OPT| **************************************************************************
 OPT| Estimated peak process memory after this step [MiB]                    716

 --------------------------
 OPTIMIZATION STEP:     50
 --------------------------

 *** WARNING in fm/cp_fm_elpa.F:521 :: Setting real_kernel for ELPA failed ***


 Number of electrons:                                                        218
 Number of occupied orbitals:                                                109
 Number of molecular orbitals:                                               146

 Number of orbital functions:                                                723
 Number of independent orbital functions:                                    723

 *** WARNING in fm/cp_fm_elpa.F:521 :: Setting real_kernel for ELPA failed ***


 Extrapolation method: ASPC


 SCF WAVEFUNCTION OPTIMIZATION

  Step     Update method      Time    Convergence         Total energy    Change
  ------------------------------------------------------------------------------

 *** WARNING in fm/cp_fm_elpa.F:521 :: Setting real_kernel for ELPA failed ***

     1 Broy./Diag. 0.40E+00    1.1     0.01045025      -322.3489601904 -3.22E+02

 *** WARNING in fm/cp_fm_elpa.F:521 :: Setting real_kernel for ELPA failed ***

     2 Broy./Diag. 0.40E+00    1.5     0.00276426      -322.3438318656  5.13E-03

 *** WARNING in fm/cp_fm_elpa.F:521 :: Setting real_kernel for ELPA failed ***

     3 Broy./Diag. 0.40E+00    1.6     0.00098513      -322.3496888726 -5.86E-03

 *** WARNING in fm/cp_fm_elpa.F:521 :: Setting real_kernel for ELPA failed ***

     4 Broy./Diag. 0.40E+00    1.6     0.00059788      -322.3497317280 -4.29E-05

 *** WARNING in fm/cp_fm_elpa.F:521 :: Setting real_kernel for ELPA failed ***

     5 Broy./Diag. 0.40E+00    1.6     0.00012625      -322.3504944858 -7.63E-04

 *** WARNING in fm/cp_fm_elpa.F:521 :: Setting real_kernel for ELPA failed ***

     6 Broy./Diag. 0.40E+00    1.6     0.00004020      -322.3500439624  4.51E-04

 *** WARNING in fm/cp_fm_elpa.F:521 :: Setting real_kernel for ELPA failed ***

     7 Broy./Diag. 0.40E+00    1.7     0.00001132      -322.3500433966  5.66E-07

 *** WARNING in fm/cp_fm_elpa.F:521 :: Setting real_kernel for ELPA failed ***

     8 Broy./Diag. 0.40E+00    1.6     0.00001385      -322.3499393716  1.04E-04

 *** WARNING in fm/cp_fm_elpa.F:521 :: Setting real_kernel for ELPA failed ***

     9 Broy./Diag. 0.40E+00    1.7     0.00000778      -322.3498894792  4.99E-05

 *** WARNING in fm/cp_fm_elpa.F:521 :: Setting real_kernel for ELPA failed ***

    10 Broy./Diag. 0.40E+00    1.8     0.00000703      -322.3498406206  4.89E-05

 *** WARNING in fm/cp_fm_elpa.F:521 :: Setting real_kernel for ELPA failed ***

    11 Broy./Diag. 0.40E+00    1.8     0.00000428      -322.3498285916  1.20E-05

 *** WARNING in fm/cp_fm_elpa.F:521 :: Setting real_kernel for ELPA failed ***

    12 Broy./Diag. 0.40E+00    1.8     0.00000314      -322.3498169980  1.16E-05

 *** WARNING in fm/cp_fm_elpa.F:521 :: Setting real_kernel for ELPA failed ***

    13 Broy./Diag. 0.40E+00    1.8     0.00000175      -322.3498070914  9.91E-06

 *** WARNING in fm/cp_fm_elpa.F:521 :: Setting real_kernel for ELPA failed ***

    14 Broy./Diag. 0.40E+00    1.8     0.00000173      -322.3498017851  5.31E-06

 *** WARNING in fm/cp_fm_elpa.F:521 :: Setting real_kernel for ELPA failed ***

    15 Broy./Diag. 0.40E+00    1.8     0.00000155      -322.3498035970 -1.81E-06

 *** WARNING in fm/cp_fm_elpa.F:521 :: Setting real_kernel for ELPA failed ***

    16 Broy./Diag. 0.40E+00    1.8     0.00000097      -322.3498031302  4.67E-07

  *** SCF run converged in    16 steps ***


  Electronic density on regular grids:       -217.9999999989        0.0000000011
  Core density on regular grids:              219.9999999998       -0.0000000002
  Total charge density on r-space grids:        2.0000000010
  Total charge density g-space grids:           2.0000000010

  Overlap energy of the core charge distribution:               0.00001404494615
  Self energy of the core charge distribution:               -766.83425392616255
  Core Hamiltonian energy:                                    231.12332372655266
  Hartree energy:                                             308.94046691854692
  Exchange-correlation energy:                                -95.46217864132274
  Dispersion energy:                                           -0.11717525272815
  Electronic entropic energy:                                  -0.00000000000000
  Fermi energy:                                                -0.26450040625096

  Total energy:                                              -322.34980313016763

 ENERGY| Total FORCE_EVAL ( QS ) energy [hartree]           -322.349802278248035

 OPT| **************************************************************************
 OPT| Step number                                                             50
 OPT| Optimization method                                                   BFGS
 OPT| Total energy [hartree]                                     -322.3498022782
 OPT| Effective energy change [hartree]                            -0.0000836979
 OPT| Predicted energy change [hartree]                            -0.0000403494
 OPT| Scaling factor                                                0.6759738465
 OPT| Step size                                                     0.1052198656
 OPT| Trust radius                                                  0.3779452266
 OPT| Decrease in energy                                                     YES
 OPT| Used time [s]                                                       28.727
 OPT|
 OPT| Maximum step size                                             0.1052198656
 OPT| Convergence limit for maximum step size                       0.0030000000
 OPT| Maximum step size is converged                                          NO
 OPT|
 OPT| RMS step size                                                 0.0196204067
 OPT| Convergence limit for RMS step size                           0.0015000000
 OPT| RMS step size is converged                                              NO
 OPT|
 OPT| Maximum gradient                                              0.0028718692
 OPT| Convergence limit for maximum gradient                        0.0004500000
 OPT| Maximum gradient is converged                                           NO
 OPT|
 OPT| RMS gradient                                                  0.0004038684
 OPT| Convergence limit for RMS gradient                            0.0003000000
 OPT| RMS gradient is converged                                               NO
 OPT| **************************************************************************
 OPT| Estimated peak process memory after this step [MiB]                    716

 --------------------------
 OPTIMIZATION STEP:     51
 --------------------------

 *** WARNING in fm/cp_fm_elpa.F:521 :: Setting real_kernel for ELPA failed ***


  Step is scaled; Scaling factor =  0.39661

 Number of electrons:                                                        218
 Number of occupied orbitals:                                                109
 Number of molecular orbitals:                                               146

 Number of orbital functions:                                                723
 Number of independent orbital functions:                                    723

 *** WARNING in fm/cp_fm_elpa.F:521 :: Setting real_kernel for ELPA failed ***


 Extrapolation method: ASPC


 SCF WAVEFUNCTION OPTIMIZATION

  Step     Update method      Time    Convergence         Total energy    Change
  ------------------------------------------------------------------------------

 *** WARNING in fm/cp_fm_elpa.F:521 :: Setting real_kernel for ELPA failed ***

     1 Broy./Diag. 0.40E+00    1.2     0.04024840      -322.3378326605 -3.22E+02

 *** WARNING in fm/cp_fm_elpa.F:521 :: Setting real_kernel for ELPA failed ***

     2 Broy./Diag. 0.40E+00    1.6     0.00634943      -322.3501428701 -1.23E-02

 *** WARNING in fm/cp_fm_elpa.F:521 :: Setting real_kernel for ELPA failed ***

     3 Broy./Diag. 0.40E+00    1.7     0.00173392      -322.3526030718 -2.46E-03

 *** WARNING in fm/cp_fm_elpa.F:521 :: Setting real_kernel for ELPA failed ***

     4 Broy./Diag. 0.40E+00    1.7     0.00074858      -322.3502188303  2.38E-03

 *** WARNING in fm/cp_fm_elpa.F:521 :: Setting real_kernel for ELPA failed ***

     5 Broy./Diag. 0.40E+00    1.7     0.00022935      -322.3513631364 -1.14E-03

 *** WARNING in fm/cp_fm_elpa.F:521 :: Setting real_kernel for ELPA failed ***

     6 Broy./Diag. 0.40E+00    1.7     0.00012847      -322.3501294476  1.23E-03

 *** WARNING in fm/cp_fm_elpa.F:521 :: Setting real_kernel for ELPA failed ***

     7 Broy./Diag. 0.40E+00    1.7     0.00006323      -322.3500539995  7.54E-05

 *** WARNING in fm/cp_fm_elpa.F:521 :: Setting real_kernel for ELPA failed ***

     8 Broy./Diag. 0.40E+00    1.8     0.00005585      -322.3495692247  4.85E-04

 *** WARNING in fm/cp_fm_elpa.F:521 :: Setting real_kernel for ELPA failed ***

     9 Broy./Diag. 0.40E+00    1.8     0.00002630      -322.3494969127  7.23E-05

 *** WARNING in fm/cp_fm_elpa.F:521 :: Setting real_kernel for ELPA failed ***

    10 Broy./Diag. 0.40E+00    1.8     0.00002513      -322.3494285322  6.84E-05

 *** WARNING in fm/cp_fm_elpa.F:521 :: Setting real_kernel for ELPA failed ***

    11 Broy./Diag. 0.40E+00    1.8     0.00001500      -322.3494412021 -1.27E-05

 *** WARNING in fm/cp_fm_elpa.F:521 :: Setting real_kernel for ELPA failed ***

    12 Broy./Diag. 0.40E+00    1.9     0.00001080      -322.3494152654  2.59E-05

 *** WARNING in fm/cp_fm_elpa.F:521 :: Setting real_kernel for ELPA failed ***

    13 Broy./Diag. 0.40E+00    1.9     0.00000712      -322.3493936182  2.16E-05

 *** WARNING in fm/cp_fm_elpa.F:521 :: Setting real_kernel for ELPA failed ***

    14 Broy./Diag. 0.40E+00    1.9     0.00000605      -322.3493983287 -4.71E-06

 *** WARNING in fm/cp_fm_elpa.F:521 :: Setting real_kernel for ELPA failed ***

    15 Broy./Diag. 0.40E+00    1.9     0.00000478      -322.3493944168  3.91E-06

 *** WARNING in fm/cp_fm_elpa.F:521 :: Setting real_kernel for ELPA failed ***

    16 Broy./Diag. 0.40E+00    1.9     0.00000304      -322.3493890476  5.37E-06

 *** WARNING in fm/cp_fm_elpa.F:521 :: Setting real_kernel for ELPA failed ***

    17 Broy./Diag. 0.40E+00    1.9     0.00000194      -322.3493834475  5.60E-06

 *** WARNING in fm/cp_fm_elpa.F:521 :: Setting real_kernel for ELPA failed ***

    18 Broy./Diag. 0.40E+00    1.9     0.00000128      -322.3493778067  5.64E-06

 *** WARNING in fm/cp_fm_elpa.F:521 :: Setting real_kernel for ELPA failed ***

    19 Broy./Diag. 0.40E+00    1.9     0.00000085      -322.3493777984  8.22E-09

  *** SCF run converged in    19 steps ***


  Electronic density on regular grids:       -217.9999999988        0.0000000012
  Core density on regular grids:              219.9999999998       -0.0000000002
  Total charge density on r-space grids:        2.0000000010
  Total charge density g-space grids:           2.0000000010

  Overlap energy of the core charge distribution:               0.00001385159269
  Self energy of the core charge distribution:               -766.83425392616255
  Core Hamiltonian energy:                                    231.05294842238197
  Hartree energy:                                             308.99046624460948
  Exchange-correlation energy:                                -95.44146157204271
  Dispersion energy:                                           -0.11709081882742
  Electronic entropic energy:                                  -0.00000000000000
  Fermi energy:                                                -0.26363655426542

  Total energy:                                              -322.34937779844853

 ENERGY| Total FORCE_EVAL ( QS ) energy [hartree]           -322.349372783382762

 OPT| **************************************************************************
 OPT| Step number                                                             51
 OPT| Optimization method                                                   BFGS
 OPT| Total energy [hartree]                                     -322.3493727834
 OPT| Effective energy change [hartree]                             0.0004294949
 OPT| Predicted energy change [hartree]                            -0.0003296548
 OPT| Scaling factor                                                0.3966148700
 OPT| Step size                                                     0.3779452266
 OPT| Trust radius                                                  0.3779452266
 OPT| Decrease in energy                                                      NO
 OPT| Used time [s]                                                       35.647
 OPT|
 OPT| Maximum step size                                             0.3779452266
 OPT| Convergence limit for maximum step size                       0.0030000000
 OPT| Maximum step size is converged                                          NO
 OPT|
 OPT| RMS step size                                                 0.0731257240
 OPT| Convergence limit for RMS step size                           0.0015000000
 OPT| RMS step size is converged                                              NO
 OPT|
 OPT| Maximum gradient                                              0.0044459648
 OPT| Convergence limit for maximum gradient                        0.0004500000
 OPT| Maximum gradient is converged                                           NO
 OPT|
 OPT| RMS gradient                                                  0.0011413257
 OPT| Convergence limit for RMS gradient                            0.0003000000
 OPT| RMS gradient is converged                                               NO
 OPT| **************************************************************************
 OPT| Estimated peak process memory after this step [MiB]                    716

 --------------------------
 OPTIMIZATION STEP:     52
 --------------------------

 *** WARNING in fm/cp_fm_elpa.F:521 :: Setting real_kernel for ELPA failed ***


  Step is scaled; Scaling factor =  0.14636

 Number of electrons:                                                        218
 Number of occupied orbitals:                                                109
 Number of molecular orbitals:                                               146

 Number of orbital functions:                                                723
 Number of independent orbital functions:                                    723

 *** WARNING in fm/cp_fm_elpa.F:521 :: Setting real_kernel for ELPA failed ***


 Extrapolation method: ASPC


 SCF WAVEFUNCTION OPTIMIZATION

  Step     Update method      Time    Convergence         Total energy    Change
  ------------------------------------------------------------------------------

 *** WARNING in fm/cp_fm_elpa.F:521 :: Setting real_kernel for ELPA failed ***

     1 Broy./Diag. 0.40E+00    1.2     0.09177145      -322.3213179034 -3.22E+02

 *** WARNING in fm/cp_fm_elpa.F:521 :: Setting real_kernel for ELPA failed ***

     2 Broy./Diag. 0.40E+00    1.6     0.00449840      -322.3459468009 -2.46E-02

 *** WARNING in fm/cp_fm_elpa.F:521 :: Setting real_kernel for ELPA failed ***

     3 Broy./Diag. 0.40E+00    1.7     0.00217790      -322.3416997749  4.25E-03

 *** WARNING in fm/cp_fm_elpa.F:521 :: Setting real_kernel for ELPA failed ***

     4 Broy./Diag. 0.40E+00    1.7     0.00125776      -322.3468057284 -5.11E-03

 *** WARNING in fm/cp_fm_elpa.F:521 :: Setting real_kernel for ELPA failed ***

     5 Broy./Diag. 0.40E+00    1.7     0.00029498      -322.3460893749  7.16E-04

 *** WARNING in fm/cp_fm_elpa.F:521 :: Setting real_kernel for ELPA failed ***

     6 Broy./Diag. 0.40E+00    1.7     0.00012420      -322.3472977534 -1.21E-03

 *** WARNING in fm/cp_fm_elpa.F:521 :: Setting real_kernel for ELPA failed ***

     7 Broy./Diag. 0.40E+00    1.7     0.00016151      -322.3480468187 -7.49E-04

 *** WARNING in fm/cp_fm_elpa.F:521 :: Setting real_kernel for ELPA failed ***

     8 Broy./Diag. 0.40E+00    1.8     0.00010535      -322.3486132995 -5.66E-04

 *** WARNING in fm/cp_fm_elpa.F:521 :: Setting real_kernel for ELPA failed ***

     9 Broy./Diag. 0.40E+00    1.8     0.00004937      -322.3488924922 -2.79E-04

 *** WARNING in fm/cp_fm_elpa.F:521 :: Setting real_kernel for ELPA failed ***

    10 Broy./Diag. 0.40E+00    1.9     0.00005360      -322.3490256185 -1.33E-04

 *** WARNING in fm/cp_fm_elpa.F:521 :: Setting real_kernel for ELPA failed ***

    11 Broy./Diag. 0.40E+00    1.9     0.00003095      -322.3490256071  1.14E-08

 *** WARNING in fm/cp_fm_elpa.F:521 :: Setting real_kernel for ELPA failed ***

    12 Broy./Diag. 0.40E+00    1.9     0.00002159      -322.3489451720  8.04E-05

 *** WARNING in fm/cp_fm_elpa.F:521 :: Setting real_kernel for ELPA failed ***

    13 Broy./Diag. 0.40E+00    1.9     0.00001525      -322.3488947734  5.04E-05

 *** WARNING in fm/cp_fm_elpa.F:521 :: Setting real_kernel for ELPA failed ***

    14 Broy./Diag. 0.40E+00    1.9     0.00000606      -322.3489026283 -7.85E-06

 *** WARNING in fm/cp_fm_elpa.F:521 :: Setting real_kernel for ELPA failed ***

    15 Broy./Diag. 0.40E+00    1.9     0.00000320      -322.3489155862 -1.30E-05

 *** WARNING in fm/cp_fm_elpa.F:521 :: Setting real_kernel for ELPA failed ***

    16 Broy./Diag. 0.40E+00    1.9     0.00000173      -322.3489291281 -1.35E-05

 *** WARNING in fm/cp_fm_elpa.F:521 :: Setting real_kernel for ELPA failed ***

    17 Broy./Diag. 0.40E+00    1.9     0.00000104      -322.3489366067 -7.48E-06

 *** WARNING in fm/cp_fm_elpa.F:521 :: Setting real_kernel for ELPA failed ***

    18 Broy./Diag. 0.40E+00    1.8     0.00000076      -322.3489460233 -9.42E-06

  *** SCF run converged in    18 steps ***


  Electronic density on regular grids:       -217.9999999988        0.0000000012
  Core density on regular grids:              219.9999999998       -0.0000000002
  Total charge density on r-space grids:        2.0000000011
  Total charge density g-space grids:           2.0000000011

  Overlap energy of the core charge distribution:               0.00001427092129
  Self energy of the core charge distribution:               -766.83425392616255
  Core Hamiltonian energy:                                    231.16042958632420
  Hartree energy:                                             308.91544783968328
  Exchange-correlation energy:                                -95.47326017650988
  Dispersion energy:                                           -0.11732361753797
  Electronic entropic energy:                                  -0.00000000000000
  Fermi energy:                                                -0.26522219503960

  Total energy:                                              -322.34894602328166

 ENERGY| Total FORCE_EVAL ( QS ) energy [hartree]           -322.348970153203823

 OPT| **************************************************************************
 OPT| Step number                                                             52
 OPT| Optimization method                                                   BFGS
 OPT| Total energy [hartree]                                     -322.3489701532
 OPT| Effective energy change [hartree]                             0.0004026302
 OPT| Predicted energy change [hartree]                            -0.0003644163
 OPT| Scaling factor                                                0.1463567712
 OPT| Step size                                                     0.3779452266
 OPT| Trust radius                                                  0.3779452266
 OPT| Decrease in energy                                                      NO
 OPT| Used time [s]                                                       33.862
 OPT|
 OPT| Maximum step size                                             0.3779452266
 OPT| Convergence limit for maximum step size                       0.0030000000
 OPT| Maximum step size is converged                                          NO
 OPT|
 OPT| RMS step size                                                 0.0476472758
 OPT| Convergence limit for RMS step size                           0.0015000000
 OPT| RMS step size is converged                                              NO
 OPT|
 OPT| Maximum gradient                                              0.0051908989
 OPT| Convergence limit for maximum gradient                        0.0004500000
 OPT| Maximum gradient is converged                                           NO
 OPT|
 OPT| RMS gradient                                                  0.0014393838
 OPT| Convergence limit for RMS gradient                            0.0003000000
 OPT| RMS gradient is converged                                               NO
 OPT| **************************************************************************
 OPT| Estimated peak process memory after this step [MiB]                    716

 --------------------------
 OPTIMIZATION STEP:     53
 --------------------------

 *** WARNING in fm/cp_fm_elpa.F:521 :: Setting real_kernel for ELPA failed ***


 Number of electrons:                                                        218
 Number of occupied orbitals:                                                109
 Number of molecular orbitals:                                               146

 Number of orbital functions:                                                723
 Number of independent orbital functions:                                    723

 *** WARNING in fm/cp_fm_elpa.F:521 :: Setting real_kernel for ELPA failed ***


 Extrapolation method: ASPC


 SCF WAVEFUNCTION OPTIMIZATION

  Step     Update method      Time    Convergence         Total energy    Change
  ------------------------------------------------------------------------------

 *** WARNING in fm/cp_fm_elpa.F:521 :: Setting real_kernel for ELPA failed ***

     1 Broy./Diag. 0.40E+00    1.2     0.07099039      -322.3191893906 -3.22E+02

 *** WARNING in fm/cp_fm_elpa.F:521 :: Setting real_kernel for ELPA failed ***

     2 Broy./Diag. 0.40E+00    1.6     0.01099159      -322.4350185213 -1.16E-01

 *** WARNING in fm/cp_fm_elpa.F:521 :: Setting real_kernel for ELPA failed ***

     3 Broy./Diag. 0.40E+00    1.7     0.00505463      -322.3751060462  5.99E-02

 *** WARNING in fm/cp_fm_elpa.F:521 :: Setting real_kernel for ELPA failed ***

     4 Broy./Diag. 0.40E+00    1.7     0.00288077      -322.3524508310  2.27E-02

 *** WARNING in fm/cp_fm_elpa.F:521 :: Setting real_kernel for ELPA failed ***

     5 Broy./Diag. 0.40E+00    1.7     0.00065745      -322.3472786346  5.17E-03

 *** WARNING in fm/cp_fm_elpa.F:521 :: Setting real_kernel for ELPA failed ***

     6 Broy./Diag. 0.40E+00    1.7     0.00012407      -322.3496261080 -2.35E-03

 *** WARNING in fm/cp_fm_elpa.F:521 :: Setting real_kernel for ELPA failed ***

     7 Broy./Diag. 0.40E+00    1.7     0.00010074      -322.3496917308 -6.56E-05

 *** WARNING in fm/cp_fm_elpa.F:521 :: Setting real_kernel for ELPA failed ***

     8 Broy./Diag. 0.40E+00    1.8     0.00010447      -322.3495480114  1.44E-04

 *** WARNING in fm/cp_fm_elpa.F:521 :: Setting real_kernel for ELPA failed ***

     9 Broy./Diag. 0.40E+00    1.8     0.00007057      -322.3494686451  7.94E-05

 *** WARNING in fm/cp_fm_elpa.F:521 :: Setting real_kernel for ELPA failed ***

    10 Broy./Diag. 0.40E+00    1.8     0.00003534      -322.3497453180 -2.77E-04

 *** WARNING in fm/cp_fm_elpa.F:521 :: Setting real_kernel for ELPA failed ***

    11 Broy./Diag. 0.40E+00    1.8     0.00002872      -322.3498262256 -8.09E-05

 *** WARNING in fm/cp_fm_elpa.F:521 :: Setting real_kernel for ELPA failed ***

    12 Broy./Diag. 0.40E+00    1.8     0.00001103      -322.3498922116 -6.60E-05

 *** WARNING in fm/cp_fm_elpa.F:521 :: Setting real_kernel for ELPA failed ***

    13 Broy./Diag. 0.40E+00    1.9     0.00000832      -322.3499396085 -4.74E-05

 *** WARNING in fm/cp_fm_elpa.F:521 :: Setting real_kernel for ELPA failed ***

    14 Broy./Diag. 0.40E+00    1.8     0.00000571      -322.3499702243 -3.06E-05

 *** WARNING in fm/cp_fm_elpa.F:521 :: Setting real_kernel for ELPA failed ***

    15 Broy./Diag. 0.40E+00    1.8     0.00000434      -322.3499517412  1.85E-05

 *** WARNING in fm/cp_fm_elpa.F:521 :: Setting real_kernel for ELPA failed ***

    16 Broy./Diag. 0.40E+00    1.9     0.00000304      -322.3499238665  2.79E-05

 *** WARNING in fm/cp_fm_elpa.F:521 :: Setting real_kernel for ELPA failed ***

    17 Broy./Diag. 0.40E+00    1.9     0.00000223      -322.3499040279  1.98E-05

 *** WARNING in fm/cp_fm_elpa.F:521 :: Setting real_kernel for ELPA failed ***

    18 Broy./Diag. 0.40E+00    1.9     0.00000114      -322.3498986448  5.38E-06

 *** WARNING in fm/cp_fm_elpa.F:521 :: Setting real_kernel for ELPA failed ***

    19 Broy./Diag. 0.40E+00    1.8     0.00000053      -322.3498884045  1.02E-05

  *** SCF run converged in    19 steps ***


  Electronic density on regular grids:       -217.9999999988        0.0000000012
  Core density on regular grids:              219.9999999998       -0.0000000002
  Total charge density on r-space grids:        2.0000000010
  Total charge density g-space grids:           2.0000000010

  Overlap energy of the core charge distribution:               0.00001416152738
  Self energy of the core charge distribution:               -766.83425392616255
  Core Hamiltonian energy:                                    231.15465292641869
  Hartree energy:                                             308.91857353784786
  Exchange-correlation energy:                                -95.47160776078516
  Dispersion energy:                                           -0.11726734330287
  Electronic entropic energy:                                  -0.00000000000000
  Fermi energy:                                                -0.26494147530037

  Total energy:                                              -322.34988840445658

 ENERGY| Total FORCE_EVAL ( QS ) energy [hartree]           -322.349864343829381

 OPT| **************************************************************************
 OPT| Step number                                                             53
 OPT| Optimization method                                                   BFGS
 OPT| Total energy [hartree]                                     -322.3498643438
 OPT| Effective energy change [hartree]                            -0.0008941906
 OPT| Predicted energy change [hartree]                            -0.0009320484
 OPT| Scaling factor                                                0.1463567712
 OPT| Step size                                                     0.1769508168
 OPT| Trust radius                                                  0.3779452266
 OPT| Decrease in energy                                                     YES
 OPT| Used time [s]                                                       35.601
 OPT|
 OPT| Maximum step size                                             0.1769508168
 OPT| Convergence limit for maximum step size                       0.0030000000
 OPT| Maximum step size is converged                                          NO
 OPT|
 OPT| RMS step size                                                 0.0423638649
 OPT| Convergence limit for RMS step size                           0.0015000000
 OPT| RMS step size is converged                                              NO
 OPT|
 OPT| Maximum gradient                                              0.0013491606
 OPT| Convergence limit for maximum gradient                        0.0004500000
 OPT| Maximum gradient is converged                                           NO
 OPT|
 OPT| RMS gradient                                                  0.0003271099
 OPT| Convergence limit for RMS gradient                            0.0003000000
 OPT| RMS gradient is converged                                               NO
 OPT| **************************************************************************
 OPT| Estimated peak process memory after this step [MiB]                    716

 --------------------------
 OPTIMIZATION STEP:     54
 --------------------------

 *** WARNING in fm/cp_fm_elpa.F:521 :: Setting real_kernel for ELPA failed ***


 Number of electrons:                                                        218
 Number of occupied orbitals:                                                109
 Number of molecular orbitals:                                               146

 Number of orbital functions:                                                723
 Number of independent orbital functions:                                    723

 *** WARNING in fm/cp_fm_elpa.F:521 :: Setting real_kernel for ELPA failed ***


 Extrapolation method: ASPC


 SCF WAVEFUNCTION OPTIMIZATION

  Step     Update method      Time    Convergence         Total energy    Change
  ------------------------------------------------------------------------------

 *** WARNING in fm/cp_fm_elpa.F:521 :: Setting real_kernel for ELPA failed ***

     1 Broy./Diag. 0.40E+00    1.2     0.05354855      -322.3331683082 -3.22E+02

 *** WARNING in fm/cp_fm_elpa.F:521 :: Setting real_kernel for ELPA failed ***

     2 Broy./Diag. 0.40E+00    1.6     0.00919866      -322.2847154497  4.85E-02

 *** WARNING in fm/cp_fm_elpa.F:521 :: Setting real_kernel for ELPA failed ***

     3 Broy./Diag. 0.40E+00    1.7     0.00418151      -322.3374839494 -5.28E-02

 *** WARNING in fm/cp_fm_elpa.F:521 :: Setting real_kernel for ELPA failed ***

     4 Broy./Diag. 0.40E+00    1.7     0.00209663      -322.3466483492 -9.16E-03

 *** WARNING in fm/cp_fm_elpa.F:521 :: Setting real_kernel for ELPA failed ***

     5 Broy./Diag. 0.40E+00    1.7     0.00055090      -322.3522074329 -5.56E-03

 *** WARNING in fm/cp_fm_elpa.F:521 :: Setting real_kernel for ELPA failed ***

     6 Broy./Diag. 0.40E+00    1.7     0.00010956      -322.3499763702  2.23E-03

 *** WARNING in fm/cp_fm_elpa.F:521 :: Setting real_kernel for ELPA failed ***

     7 Broy./Diag. 0.40E+00    1.7     0.00004550      -322.3498881075  8.83E-05

 *** WARNING in fm/cp_fm_elpa.F:521 :: Setting real_kernel for ELPA failed ***

     8 Broy./Diag. 0.40E+00    1.8     0.00004558      -322.3499619463 -7.38E-05

 *** WARNING in fm/cp_fm_elpa.F:521 :: Setting real_kernel for ELPA failed ***

     9 Broy./Diag. 0.40E+00    1.8     0.00003090      -322.3500550408 -9.31E-05

 *** WARNING in fm/cp_fm_elpa.F:521 :: Setting real_kernel for ELPA failed ***

    10 Broy./Diag. 0.40E+00    1.9     0.00001950      -322.3499986947  5.63E-05

 *** WARNING in fm/cp_fm_elpa.F:521 :: Setting real_kernel for ELPA failed ***

    11 Broy./Diag. 0.40E+00    1.9     0.00001494      -322.3499948341  3.86E-06

 *** WARNING in fm/cp_fm_elpa.F:521 :: Setting real_kernel for ELPA failed ***

    12 Broy./Diag. 0.40E+00    1.9     0.00000912      -322.3499686755  2.62E-05

 *** WARNING in fm/cp_fm_elpa.F:521 :: Setting real_kernel for ELPA failed ***

    13 Broy./Diag. 0.40E+00    1.8     0.00000622      -322.3499437257  2.49E-05

 *** WARNING in fm/cp_fm_elpa.F:521 :: Setting real_kernel for ELPA failed ***

    14 Broy./Diag. 0.40E+00    1.8     0.00000290      -322.3499203509  2.34E-05

 *** WARNING in fm/cp_fm_elpa.F:521 :: Setting real_kernel for ELPA failed ***

    15 Broy./Diag. 0.40E+00    1.9     0.00000169      -322.3499248208 -4.47E-06

 *** WARNING in fm/cp_fm_elpa.F:521 :: Setting real_kernel for ELPA failed ***

    16 Broy./Diag. 0.40E+00    1.9     0.00000160      -322.3499276764 -2.86E-06

 *** WARNING in fm/cp_fm_elpa.F:521 :: Setting real_kernel for ELPA failed ***

    17 Broy./Diag. 0.40E+00    1.8     0.00000095      -322.3499307570 -3.08E-06

  *** SCF run converged in    17 steps ***


  Electronic density on regular grids:       -217.9999999988        0.0000000012
  Core density on regular grids:              219.9999999998       -0.0000000002
  Total charge density on r-space grids:        2.0000000010
  Total charge density g-space grids:           2.0000000010

  Overlap energy of the core charge distribution:               0.00001408005007
  Self energy of the core charge distribution:               -766.83425392616255
  Core Hamiltonian energy:                                    231.13140677789301
  Hartree energy:                                             308.93478975976882
  Exchange-correlation energy:                                -95.46466361469697
  Dispersion energy:                                           -0.11722383380571
  Electronic entropic energy:                                  -0.00000000000000
  Fermi energy:                                                -0.26456398041930

  Total energy:                                              -322.34993075695331

 ENERGY| Total FORCE_EVAL ( QS ) energy [hartree]           -322.349934487299208

 OPT| **************************************************************************
 OPT| Step number                                                             54
 OPT| Optimization method                                                   BFGS
 OPT| Total energy [hartree]                                     -322.3499344873
 OPT| Effective energy change [hartree]                            -0.0000701435
 OPT| Predicted energy change [hartree]                            -0.0000697437
 OPT| Scaling factor                                                0.1463567712
 OPT| Step size                                                     0.1326548380
 OPT| Trust radius                                                  0.3779452266
 OPT| Decrease in energy                                                     YES
 OPT| Used time [s]                                                       31.803
 OPT|
 OPT| Maximum step size                                             0.1326548380
 OPT| Convergence limit for maximum step size                       0.0030000000
 OPT| Maximum step size is converged                                          NO
 OPT|
 OPT| RMS step size                                                 0.0242083017
 OPT| Convergence limit for RMS step size                           0.0015000000
 OPT| RMS step size is converged                                              NO
 OPT|
 OPT| Maximum gradient                                              0.0016812959
 OPT| Convergence limit for maximum gradient                        0.0004500000
 OPT| Maximum gradient is converged                                           NO
 OPT|
 OPT| RMS gradient                                                  0.0004225898
 OPT| Convergence limit for RMS gradient                            0.0003000000
 OPT| RMS gradient is converged                                               NO
 OPT| **************************************************************************
 OPT| Estimated peak process memory after this step [MiB]                    716

 --------------------------
 OPTIMIZATION STEP:     55
 --------------------------

 *** WARNING in fm/cp_fm_elpa.F:521 :: Setting real_kernel for ELPA failed ***


 Number of electrons:                                                        218
 Number of occupied orbitals:                                                109
 Number of molecular orbitals:                                               146

 Number of orbital functions:                                                723
 Number of independent orbital functions:                                    723

 *** WARNING in fm/cp_fm_elpa.F:521 :: Setting real_kernel for ELPA failed ***


 Extrapolation method: ASPC


 SCF WAVEFUNCTION OPTIMIZATION

  Step     Update method      Time    Convergence         Total energy    Change
  ------------------------------------------------------------------------------

 *** WARNING in fm/cp_fm_elpa.F:521 :: Setting real_kernel for ELPA failed ***

     1 Broy./Diag. 0.40E+00    1.2     0.03156244      -322.3416593231 -3.22E+02

 *** WARNING in fm/cp_fm_elpa.F:521 :: Setting real_kernel for ELPA failed ***

     2 Broy./Diag. 0.40E+00    1.6     0.00477674      -322.3706454239 -2.90E-02

 *** WARNING in fm/cp_fm_elpa.F:521 :: Setting real_kernel for ELPA failed ***

     3 Broy./Diag. 0.40E+00    1.6     0.00137641      -322.3551574271  1.55E-02

 *** WARNING in fm/cp_fm_elpa.F:521 :: Setting real_kernel for ELPA failed ***

     4 Broy./Diag. 0.40E+00    1.7     0.00078070      -322.3503595593  4.80E-03

 *** WARNING in fm/cp_fm_elpa.F:521 :: Setting real_kernel for ELPA failed ***

     5 Broy./Diag. 0.40E+00    1.7     0.00014920      -322.3492521829  1.11E-03

 *** WARNING in fm/cp_fm_elpa.F:521 :: Setting real_kernel for ELPA failed ***

     6 Broy./Diag. 0.40E+00    1.7     0.00005442      -322.3499922458 -7.40E-04

 *** WARNING in fm/cp_fm_elpa.F:521 :: Setting real_kernel for ELPA failed ***

     7 Broy./Diag. 0.40E+00    1.7     0.00004174      -322.3500953985 -1.03E-04

 *** WARNING in fm/cp_fm_elpa.F:521 :: Setting real_kernel for ELPA failed ***

     8 Broy./Diag. 0.40E+00    1.8     0.00003073      -322.3500189972  7.64E-05

 *** WARNING in fm/cp_fm_elpa.F:521 :: Setting real_kernel for ELPA failed ***

     9 Broy./Diag. 0.40E+00    1.8     0.00002125      -322.3499488256  7.02E-05

 *** WARNING in fm/cp_fm_elpa.F:521 :: Setting real_kernel for ELPA failed ***

    10 Broy./Diag. 0.40E+00    1.9     0.00001437      -322.3499603257 -1.15E-05

 *** WARNING in fm/cp_fm_elpa.F:521 :: Setting real_kernel for ELPA failed ***

    11 Broy./Diag. 0.40E+00    1.8     0.00001293      -322.3499486436  1.17E-05

 *** WARNING in fm/cp_fm_elpa.F:521 :: Setting real_kernel for ELPA failed ***

    12 Broy./Diag. 0.40E+00    1.8     0.00000670      -322.3499399304  8.71E-06

 *** WARNING in fm/cp_fm_elpa.F:521 :: Setting real_kernel for ELPA failed ***

    13 Broy./Diag. 0.40E+00    1.9     0.00000393      -322.3499371910  2.74E-06

 *** WARNING in fm/cp_fm_elpa.F:521 :: Setting real_kernel for ELPA failed ***

    14 Broy./Diag. 0.40E+00    1.9     0.00000266      -322.3499409977 -3.81E-06

 *** WARNING in fm/cp_fm_elpa.F:521 :: Setting real_kernel for ELPA failed ***

    15 Broy./Diag. 0.40E+00    1.8     0.00000277      -322.3499398417  1.16E-06

 *** WARNING in fm/cp_fm_elpa.F:521 :: Setting real_kernel for ELPA failed ***

    16 Broy./Diag. 0.40E+00    1.9     0.00000131      -322.3499435902 -3.75E-06

 *** WARNING in fm/cp_fm_elpa.F:521 :: Setting real_kernel for ELPA failed ***

    17 Broy./Diag. 0.40E+00    1.9     0.00000072      -322.3499462902 -2.70E-06

  *** SCF run converged in    17 steps ***


  Electronic density on regular grids:       -217.9999999988        0.0000000012
  Core density on regular grids:              219.9999999998       -0.0000000002
  Total charge density on r-space grids:        2.0000000010
  Total charge density g-space grids:           2.0000000010

  Overlap energy of the core charge distribution:               0.00001408652708
  Self energy of the core charge distribution:               -766.83425392616255
  Core Hamiltonian energy:                                    231.13314616978613
  Hartree energy:                                             308.93366038198320
  Exchange-correlation energy:                                -95.46527333875559
  Dispersion energy:                                           -0.11723966360400
  Electronic entropic energy:                                  -0.00000000000000
  Fermi energy:                                                -0.26472109034036

  Total energy:                                              -322.34994629022572

 ENERGY| Total FORCE_EVAL ( QS ) energy [hartree]           -322.349957702668462

 OPT| **************************************************************************
 OPT| Step number                                                             55
 OPT| Optimization method                                                   BFGS
 OPT| Total energy [hartree]                                     -322.3499577027
 OPT| Effective energy change [hartree]                            -0.0000232154
 OPT| Predicted energy change [hartree]                            -0.0000167177
 OPT| Scaling factor                                                0.1463567712
 OPT| Step size                                                     0.0122340525
 OPT| Trust radius                                                  0.3779452266
 OPT| Decrease in energy                                                     YES
 OPT| Used time [s]                                                       31.923
 OPT|
 OPT| Maximum step size                                             0.0122340525
 OPT| Convergence limit for maximum step size                       0.0030000000
 OPT| Maximum step size is converged                                          NO
 OPT|
 OPT| RMS step size                                                 0.0024765790
 OPT| Convergence limit for RMS step size                           0.0015000000
 OPT| RMS step size is converged                                              NO
 OPT|
 OPT| Maximum gradient                                              0.0016755241
 OPT| Convergence limit for maximum gradient                        0.0004500000
 OPT| Maximum gradient is converged                                           NO
 OPT|
 OPT| RMS gradient                                                  0.0004074529
 OPT| Convergence limit for RMS gradient                            0.0003000000
 OPT| RMS gradient is converged                                               NO
 OPT| **************************************************************************
 OPT| Estimated peak process memory after this step [MiB]                    716

 --------------------------
 OPTIMIZATION STEP:     56
 --------------------------

 *** WARNING in fm/cp_fm_elpa.F:521 :: Setting real_kernel for ELPA failed ***


 Number of electrons:                                                        218
 Number of occupied orbitals:                                                109
 Number of molecular orbitals:                                               146

 Number of orbital functions:                                                723
 Number of independent orbital functions:                                    723

 *** WARNING in fm/cp_fm_elpa.F:521 :: Setting real_kernel for ELPA failed ***


 Extrapolation method: ASPC


 SCF WAVEFUNCTION OPTIMIZATION

  Step     Update method      Time    Convergence         Total energy    Change
  ------------------------------------------------------------------------------

 *** WARNING in fm/cp_fm_elpa.F:521 :: Setting real_kernel for ELPA failed ***

     1 Broy./Diag. 0.40E+00    1.1     0.01323158      -322.3478994408 -3.22E+02

 *** WARNING in fm/cp_fm_elpa.F:521 :: Setting real_kernel for ELPA failed ***

     2 Broy./Diag. 0.40E+00    1.5     0.00169023      -322.3576897468 -9.79E-03

 *** WARNING in fm/cp_fm_elpa.F:521 :: Setting real_kernel for ELPA failed ***

     3 Broy./Diag. 0.40E+00    1.5     0.00063548      -322.3517095677  5.98E-03

 *** WARNING in fm/cp_fm_elpa.F:521 :: Setting real_kernel for ELPA failed ***

     4 Broy./Diag. 0.40E+00    1.5     0.00036296      -322.3494022471  2.31E-03

 *** WARNING in fm/cp_fm_elpa.F:521 :: Setting real_kernel for ELPA failed ***

     5 Broy./Diag. 0.40E+00    1.5     0.00005442      -322.3495473279 -1.45E-04

 *** WARNING in fm/cp_fm_elpa.F:521 :: Setting real_kernel for ELPA failed ***

     6 Broy./Diag. 0.40E+00    1.5     0.00002428      -322.3498710013 -3.24E-04

 *** WARNING in fm/cp_fm_elpa.F:521 :: Setting real_kernel for ELPA failed ***

     7 Broy./Diag. 0.40E+00    1.6     0.00001768      -322.3499088242 -3.78E-05

 *** WARNING in fm/cp_fm_elpa.F:521 :: Setting real_kernel for ELPA failed ***

     8 Broy./Diag. 0.40E+00    1.6     0.00001480      -322.3498998483  8.98E-06

 *** WARNING in fm/cp_fm_elpa.F:521 :: Setting real_kernel for ELPA failed ***

     9 Broy./Diag. 0.40E+00    1.6     0.00001334      -322.3499355688 -3.57E-05

 *** WARNING in fm/cp_fm_elpa.F:521 :: Setting real_kernel for ELPA failed ***

    10 Broy./Diag. 0.40E+00    1.7     0.00001100      -322.3499802229 -4.47E-05

 *** WARNING in fm/cp_fm_elpa.F:521 :: Setting real_kernel for ELPA failed ***

    11 Broy./Diag. 0.40E+00    1.7     0.00000487      -322.3499879985 -7.78E-06

 *** WARNING in fm/cp_fm_elpa.F:521 :: Setting real_kernel for ELPA failed ***

    12 Broy./Diag. 0.40E+00    1.7     0.00000288      -322.3499938724 -5.87E-06

 *** WARNING in fm/cp_fm_elpa.F:521 :: Setting real_kernel for ELPA failed ***

    13 Broy./Diag. 0.40E+00    1.7     0.00000154      -322.3499967392 -2.87E-06

 *** WARNING in fm/cp_fm_elpa.F:521 :: Setting real_kernel for ELPA failed ***

    14 Broy./Diag. 0.40E+00    1.7     0.00000133      -322.3500034173 -6.68E-06

 *** WARNING in fm/cp_fm_elpa.F:521 :: Setting real_kernel for ELPA failed ***

    15 Broy./Diag. 0.40E+00    1.7     0.00000150      -322.3499976208  5.80E-06

 *** WARNING in fm/cp_fm_elpa.F:521 :: Setting real_kernel for ELPA failed ***

    16 Broy./Diag. 0.40E+00    1.7     0.00000091      -322.3499951329  2.49E-06

  *** SCF run converged in    16 steps ***


  Electronic density on regular grids:       -217.9999999988        0.0000000012
  Core density on regular grids:              219.9999999998       -0.0000000002
  Total charge density on r-space grids:        2.0000000010
  Total charge density g-space grids:           2.0000000010

  Overlap energy of the core charge distribution:               0.00001409291301
  Self energy of the core charge distribution:               -766.83425392616255
  Core Hamiltonian energy:                                    231.13946051303020
  Hartree energy:                                             308.92924131314351
  Exchange-correlation energy:                                -95.46716924544188
  Dispersion energy:                                           -0.11728788040913
  Electronic entropic energy:                                  -0.00000000000000
  Fermi energy:                                                -0.26490269487627

  Total energy:                                              -322.34999513292689

 ENERGY| Total FORCE_EVAL ( QS ) energy [hartree]           -322.349989137431805

 OPT| **************************************************************************
 OPT| Step number                                                             56
 OPT| Optimization method                                                   BFGS
 OPT| Total energy [hartree]                                     -322.3499891374
 OPT| Effective energy change [hartree]                            -0.0000314348
 OPT| Predicted energy change [hartree]                            -0.0000256225
 OPT| Scaling factor                                                0.1463567712
 OPT| Step size                                                     0.0308557572
 OPT| Trust radius                                                  0.3779452266
 OPT| Decrease in energy                                                     YES
 OPT| Used time [s]                                                       27.406
 OPT|
 OPT| Maximum step size                                             0.0308557572
 OPT| Convergence limit for maximum step size                       0.0030000000
 OPT| Maximum step size is converged                                          NO
 OPT|
 OPT| RMS step size                                                 0.0062380573
 OPT| Convergence limit for RMS step size                           0.0015000000
 OPT| RMS step size is converged                                              NO
 OPT|
 OPT| Maximum gradient                                              0.0016721562
 OPT| Convergence limit for maximum gradient                        0.0004500000
 OPT| Maximum gradient is converged                                           NO
 OPT|
 OPT| RMS gradient                                                  0.0003807136
 OPT| Convergence limit for RMS gradient                            0.0003000000
 OPT| RMS gradient is converged                                               NO
 OPT| **************************************************************************
 OPT| Estimated peak process memory after this step [MiB]                    716

 --------------------------
 OPTIMIZATION STEP:     57
 --------------------------

 *** WARNING in fm/cp_fm_elpa.F:521 :: Setting real_kernel for ELPA failed ***


 Number of electrons:                                                        218
 Number of occupied orbitals:                                                109
 Number of molecular orbitals:                                               146

 Number of orbital functions:                                                723
 Number of independent orbital functions:                                    723

 *** WARNING in fm/cp_fm_elpa.F:521 :: Setting real_kernel for ELPA failed ***


 Extrapolation method: ASPC


 SCF WAVEFUNCTION OPTIMIZATION

  Step     Update method      Time    Convergence         Total energy    Change
  ------------------------------------------------------------------------------

 *** WARNING in fm/cp_fm_elpa.F:521 :: Setting real_kernel for ELPA failed ***

     1 Broy./Diag. 0.40E+00    1.1     0.00495916      -322.3497949417 -3.22E+02

 *** WARNING in fm/cp_fm_elpa.F:521 :: Setting real_kernel for ELPA failed ***

     2 Broy./Diag. 0.40E+00    1.5     0.00094703      -322.3592458726 -9.45E-03

 *** WARNING in fm/cp_fm_elpa.F:521 :: Setting real_kernel for ELPA failed ***

     3 Broy./Diag. 0.40E+00    1.6     0.00035478      -322.3509433378  8.30E-03

 *** WARNING in fm/cp_fm_elpa.F:521 :: Setting real_kernel for ELPA failed ***

     4 Broy./Diag. 0.40E+00    1.6     0.00023033      -322.3498417119  1.10E-03

 *** WARNING in fm/cp_fm_elpa.F:521 :: Setting real_kernel for ELPA failed ***

     5 Broy./Diag. 0.40E+00    1.6     0.00004590      -322.3495805349  2.61E-04

 *** WARNING in fm/cp_fm_elpa.F:521 :: Setting real_kernel for ELPA failed ***

     6 Broy./Diag. 0.40E+00    1.6     0.00001452      -322.3500020588 -4.22E-04

 *** WARNING in fm/cp_fm_elpa.F:521 :: Setting real_kernel for ELPA failed ***

     7 Broy./Diag. 0.40E+00    1.7     0.00000546      -322.3500066538 -4.60E-06

 *** WARNING in fm/cp_fm_elpa.F:521 :: Setting real_kernel for ELPA failed ***

     8 Broy./Diag. 0.40E+00    1.7     0.00000786      -322.3499744696  3.22E-05

 *** WARNING in fm/cp_fm_elpa.F:521 :: Setting real_kernel for ELPA failed ***

     9 Broy./Diag. 0.40E+00    1.7     0.00000406      -322.3499744727 -3.17E-09

 *** WARNING in fm/cp_fm_elpa.F:521 :: Setting real_kernel for ELPA failed ***

    10 Broy./Diag. 0.40E+00    1.8     0.00000265      -322.3500125668 -3.81E-05

 *** WARNING in fm/cp_fm_elpa.F:521 :: Setting real_kernel for ELPA failed ***

    11 Broy./Diag. 0.40E+00    1.8     0.00000119      -322.3500254257 -1.29E-05

 *** WARNING in fm/cp_fm_elpa.F:521 :: Setting real_kernel for ELPA failed ***

    12 Broy./Diag. 0.40E+00    1.8     0.00000092      -322.3500269653 -1.54E-06

  *** SCF run converged in    12 steps ***


  Electronic density on regular grids:       -217.9999999988        0.0000000012
  Core density on regular grids:              219.9999999998       -0.0000000002
  Total charge density on r-space grids:        2.0000000010
  Total charge density g-space grids:           2.0000000010

  Overlap energy of the core charge distribution:               0.00001407781571
  Self energy of the core charge distribution:               -766.83425392616255
  Core Hamiltonian energy:                                    231.14023863715209
  Hartree energy:                                             308.92887929348734
  Exchange-correlation energy:                                -95.46756747685326
  Dispersion energy:                                           -0.11733757073659
  Electronic entropic energy:                                  -0.00000000000000
  Fermi energy:                                                -0.26510675380692

  Total energy:                                              -322.35002696529727

 ENERGY| Total FORCE_EVAL ( QS ) energy [hartree]           -322.350026669131523

 OPT| **************************************************************************
 OPT| Step number                                                             57
 OPT| Optimization method                                                   BFGS
 OPT| Total energy [hartree]                                     -322.3500266691
 OPT| Effective energy change [hartree]                            -0.0000375317
 OPT| Predicted energy change [hartree]                            -0.0000296381
 OPT| Scaling factor                                                0.1463567712
 OPT| Step size                                                     0.0480333888
 OPT| Trust radius                                                  0.3779452266
 OPT| Decrease in energy                                                     YES
 OPT| Used time [s]                                                       21.680
 OPT|
 OPT| Maximum step size                                             0.0480333888
 OPT| Convergence limit for maximum step size                       0.0030000000
 OPT| Maximum step size is converged                                          NO
 OPT|
 OPT| RMS step size                                                 0.0081797783
 OPT| Convergence limit for RMS step size                           0.0015000000
 OPT| RMS step size is converged                                              NO
 OPT|
 OPT| Maximum gradient                                              0.0017094009
 OPT| Convergence limit for maximum gradient                        0.0004500000
 OPT| Maximum gradient is converged                                           NO
 OPT|
 OPT| RMS gradient                                                  0.0003484431
 OPT| Convergence limit for RMS gradient                            0.0003000000
 OPT| RMS gradient is converged                                               NO
 OPT| **************************************************************************
 OPT| Estimated peak process memory after this step [MiB]                    716

 --------------------------
 OPTIMIZATION STEP:     58
 --------------------------

 *** WARNING in fm/cp_fm_elpa.F:521 :: Setting real_kernel for ELPA failed ***


 Number of electrons:                                                        218
 Number of occupied orbitals:                                                109
 Number of molecular orbitals:                                               146

 Number of orbital functions:                                                723
 Number of independent orbital functions:                                    723

 *** WARNING in fm/cp_fm_elpa.F:521 :: Setting real_kernel for ELPA failed ***


 Extrapolation method: ASPC


 SCF WAVEFUNCTION OPTIMIZATION

  Step     Update method      Time    Convergence         Total energy    Change
  ------------------------------------------------------------------------------

 *** WARNING in fm/cp_fm_elpa.F:521 :: Setting real_kernel for ELPA failed ***

     1 Broy./Diag. 0.40E+00    1.1     0.00573350      -322.3498288550 -3.22E+02

 *** WARNING in fm/cp_fm_elpa.F:521 :: Setting real_kernel for ELPA failed ***

     2 Broy./Diag. 0.40E+00    1.5     0.00094020      -322.3505080238 -6.79E-04

 *** WARNING in fm/cp_fm_elpa.F:521 :: Setting real_kernel for ELPA failed ***

     3 Broy./Diag. 0.40E+00    1.5     0.00042113      -322.3500645493  4.43E-04

 *** WARNING in fm/cp_fm_elpa.F:521 :: Setting real_kernel for ELPA failed ***

     4 Broy./Diag. 0.40E+00    1.5     0.00022148      -322.3497109040  3.54E-04

 *** WARNING in fm/cp_fm_elpa.F:521 :: Setting real_kernel for ELPA failed ***

     5 Broy./Diag. 0.40E+00    1.5     0.00006519      -322.3501196465 -4.09E-04

 *** WARNING in fm/cp_fm_elpa.F:521 :: Setting real_kernel for ELPA failed ***

     6 Broy./Diag. 0.40E+00    1.6     0.00001594      -322.3500485994  7.10E-05

 *** WARNING in fm/cp_fm_elpa.F:521 :: Setting real_kernel for ELPA failed ***

     7 Broy./Diag. 0.40E+00    1.6     0.00000488      -322.3500811191 -3.25E-05

 *** WARNING in fm/cp_fm_elpa.F:521 :: Setting real_kernel for ELPA failed ***

     8 Broy./Diag. 0.40E+00    1.6     0.00000363      -322.3500427487  3.84E-05

 *** WARNING in fm/cp_fm_elpa.F:521 :: Setting real_kernel for ELPA failed ***

     9 Broy./Diag. 0.40E+00    1.6     0.00000355      -322.3500472638 -4.52E-06

 *** WARNING in fm/cp_fm_elpa.F:521 :: Setting real_kernel for ELPA failed ***

    10 Broy./Diag. 0.40E+00    1.7     0.00000167      -322.3500485455 -1.28E-06

 *** WARNING in fm/cp_fm_elpa.F:521 :: Setting real_kernel for ELPA failed ***

    11 Broy./Diag. 0.40E+00    1.7     0.00000155      -322.3500530214 -4.48E-06

 *** WARNING in fm/cp_fm_elpa.F:521 :: Setting real_kernel for ELPA failed ***

    12 Broy./Diag. 0.40E+00    1.7     0.00000122      -322.3500521199  9.02E-07

 *** WARNING in fm/cp_fm_elpa.F:521 :: Setting real_kernel for ELPA failed ***

    13 Broy./Diag. 0.40E+00    1.7     0.00000099      -322.3500534259 -1.31E-06

  *** SCF run converged in    13 steps ***


  Electronic density on regular grids:       -217.9999999988        0.0000000012
  Core density on regular grids:              219.9999999998       -0.0000000002
  Total charge density on r-space grids:        2.0000000010
  Total charge density g-space grids:           2.0000000010

  Overlap energy of the core charge distribution:               0.00001407379888
  Self energy of the core charge distribution:               -766.83425392616255
  Core Hamiltonian energy:                                    231.14306433301027
  Hartree energy:                                             308.92679649528009
  Exchange-correlation energy:                                -95.46831155283041
  Dispersion energy:                                           -0.11736284902010
  Electronic entropic energy:                                  -0.00000000000000
  Fermi energy:                                                -0.26510244094936

  Total energy:                                              -322.35005342592387

 ENERGY| Total FORCE_EVAL ( QS ) energy [hartree]           -322.350054551974381

 OPT| **************************************************************************
 OPT| Step number                                                             58
 OPT| Optimization method                                                   BFGS
 OPT| Total energy [hartree]                                     -322.3500545520
 OPT| Effective energy change [hartree]                            -0.0000278828
 OPT| Predicted energy change [hartree]                            -0.0000216107
 OPT| Scaling factor                                                0.1463567712
 OPT| Step size                                                     0.0334937301
 OPT| Trust radius                                                  0.3779452266
 OPT| Decrease in energy                                                     YES
 OPT| Used time [s]                                                       22.341
 OPT|
 OPT| Maximum step size                                             0.0334937301
 OPT| Convergence limit for maximum step size                       0.0030000000
 OPT| Maximum step size is converged                                          NO
 OPT|
 OPT| RMS step size                                                 0.0059069352
 OPT| Convergence limit for RMS step size                           0.0015000000
 OPT| RMS step size is converged                                              NO
 OPT|
 OPT| Maximum gradient                                              0.0014664723
 OPT| Convergence limit for maximum gradient                        0.0004500000
 OPT| Maximum gradient is converged                                           NO
 OPT|
 OPT| RMS gradient                                                  0.0002727421
 OPT| Convergence limit for RMS gradient                            0.0003000000
 OPT| RMS gradient is converged                                              YES
 OPT| **************************************************************************
 OPT| Estimated peak process memory after this step [MiB]                    716

 --------------------------
 OPTIMIZATION STEP:     59
 --------------------------

 *** WARNING in fm/cp_fm_elpa.F:521 :: Setting real_kernel for ELPA failed ***


 Number of electrons:                                                        218
 Number of occupied orbitals:                                                109
 Number of molecular orbitals:                                               146

 Number of orbital functions:                                                723
 Number of independent orbital functions:                                    723

 *** WARNING in fm/cp_fm_elpa.F:521 :: Setting real_kernel for ELPA failed ***


 Extrapolation method: ASPC


 SCF WAVEFUNCTION OPTIMIZATION

  Step     Update method      Time    Convergence         Total energy    Change
  ------------------------------------------------------------------------------

 *** WARNING in fm/cp_fm_elpa.F:521 :: Setting real_kernel for ELPA failed ***

     1 Broy./Diag. 0.40E+00    1.1     0.00339970      -322.3499837079 -3.22E+02

 *** WARNING in fm/cp_fm_elpa.F:521 :: Setting real_kernel for ELPA failed ***

     2 Broy./Diag. 0.40E+00    1.5     0.00082637      -322.3536489312 -3.67E-03

 *** WARNING in fm/cp_fm_elpa.F:521 :: Setting real_kernel for ELPA failed ***

     3 Broy./Diag. 0.40E+00    1.6     0.00021691      -322.3501882212  3.46E-03

 *** WARNING in fm/cp_fm_elpa.F:521 :: Setting real_kernel for ELPA failed ***

     4 Broy./Diag. 0.40E+00    1.6     0.00014198      -322.3503855847 -1.97E-04

 *** WARNING in fm/cp_fm_elpa.F:521 :: Setting real_kernel for ELPA failed ***

     5 Broy./Diag. 0.40E+00    1.6     0.00002578      -322.3499092719  4.76E-04

 *** WARNING in fm/cp_fm_elpa.F:521 :: Setting real_kernel for ELPA failed ***

     6 Broy./Diag. 0.40E+00    1.6     0.00000643      -322.3500722436 -1.63E-04

 *** WARNING in fm/cp_fm_elpa.F:521 :: Setting real_kernel for ELPA failed ***

     7 Broy./Diag. 0.40E+00    1.6     0.00000374      -322.3500714507  7.93E-07

 *** WARNING in fm/cp_fm_elpa.F:521 :: Setting real_kernel for ELPA failed ***

     8 Broy./Diag. 0.40E+00    1.7     0.00000424      -322.3500660237  5.43E-06

 *** WARNING in fm/cp_fm_elpa.F:521 :: Setting real_kernel for ELPA failed ***

     9 Broy./Diag. 0.40E+00    1.7     0.00000295      -322.3500632198  2.80E-06

 *** WARNING in fm/cp_fm_elpa.F:521 :: Setting real_kernel for ELPA failed ***

    10 Broy./Diag. 0.40E+00    1.8     0.00000242      -322.3500726244 -9.40E-06

 *** WARNING in fm/cp_fm_elpa.F:521 :: Setting real_kernel for ELPA failed ***

    11 Broy./Diag. 0.40E+00    1.8     0.00000101      -322.3500766655 -4.04E-06

 *** WARNING in fm/cp_fm_elpa.F:521 :: Setting real_kernel for ELPA failed ***

    12 Broy./Diag. 0.40E+00    1.8     0.00000054      -322.3500754060  1.26E-06

  *** SCF run converged in    12 steps ***


  Electronic density on regular grids:       -217.9999999988        0.0000000012
  Core density on regular grids:              219.9999999998       -0.0000000002
  Total charge density on r-space grids:        2.0000000010
  Total charge density g-space grids:           2.0000000010

  Overlap energy of the core charge distribution:               0.00001409071609
  Self energy of the core charge distribution:               -766.83425392616255
  Core Hamiltonian energy:                                    231.14748986573147
  Hartree energy:                                             308.92366309447948
  Exchange-correlation energy:                                -95.46961880654706
  Dispersion energy:                                           -0.11736972419186
  Electronic entropic energy:                                  -0.00000000000000
  Fermi energy:                                                -0.26511351743175

  Total energy:                                              -322.35007540597445

 ENERGY| Total FORCE_EVAL ( QS ) energy [hartree]           -322.350073080616426

 OPT| **************************************************************************
 OPT| Step number                                                             59
 OPT| Optimization method                                                   BFGS
 OPT| Total energy [hartree]                                     -322.3500730806
 OPT| Effective energy change [hartree]                            -0.0000185286
 OPT| Predicted energy change [hartree]                            -0.0000150478
 OPT| Scaling factor                                                0.1463567712
 OPT| Step size                                                     0.0156120276
 OPT| Trust radius                                                  0.3779452266
 OPT| Decrease in energy                                                     YES
 OPT| Used time [s]                                                       21.529
 OPT|
 OPT| Maximum step size                                             0.0156120276
 OPT| Convergence limit for maximum step size                       0.0030000000
 OPT| Maximum step size is converged                                          NO
 OPT|
 OPT| RMS step size                                                 0.0031151740
 OPT| Convergence limit for RMS step size                           0.0015000000
 OPT| RMS step size is converged                                              NO
 OPT|
 OPT| Maximum gradient                                              0.0012684391
 OPT| Convergence limit for maximum gradient                        0.0004500000
 OPT| Maximum gradient is converged                                           NO
 OPT|
 OPT| RMS gradient                                                  0.0002375189
 OPT| Convergence limit for RMS gradient                            0.0003000000
 OPT| RMS gradient is converged                                              YES
 OPT| **************************************************************************
 OPT| Estimated peak process memory after this step [MiB]                    716

 --------------------------
 OPTIMIZATION STEP:     60
 --------------------------

 *** WARNING in fm/cp_fm_elpa.F:521 :: Setting real_kernel for ELPA failed ***


 Number of electrons:                                                        218
 Number of occupied orbitals:                                                109
 Number of molecular orbitals:                                               146

 Number of orbital functions:                                                723
 Number of independent orbital functions:                                    723

 *** WARNING in fm/cp_fm_elpa.F:521 :: Setting real_kernel for ELPA failed ***


 Extrapolation method: ASPC


 SCF WAVEFUNCTION OPTIMIZATION

  Step     Update method      Time    Convergence         Total energy    Change
  ------------------------------------------------------------------------------

 *** WARNING in fm/cp_fm_elpa.F:521 :: Setting real_kernel for ELPA failed ***

     1 Broy./Diag. 0.40E+00    1.1     0.00250176      -322.3499820419 -3.22E+02

 *** WARNING in fm/cp_fm_elpa.F:521 :: Setting real_kernel for ELPA failed ***

     2 Broy./Diag. 0.40E+00    1.5     0.00053090      -322.3491030235  8.79E-04

 *** WARNING in fm/cp_fm_elpa.F:521 :: Setting real_kernel for ELPA failed ***

     3 Broy./Diag. 0.40E+00    1.6     0.00019330      -322.3504562646 -1.35E-03

 *** WARNING in fm/cp_fm_elpa.F:521 :: Setting real_kernel for ELPA failed ***

     4 Broy./Diag. 0.40E+00    1.5     0.00008954      -322.3501596698  2.97E-04

 *** WARNING in fm/cp_fm_elpa.F:521 :: Setting real_kernel for ELPA failed ***

     5 Broy./Diag. 0.40E+00    1.6     0.00002886      -322.3504166606 -2.57E-04

 *** WARNING in fm/cp_fm_elpa.F:521 :: Setting real_kernel for ELPA failed ***

     6 Broy./Diag. 0.40E+00    1.6     0.00001389      -322.3502187683  1.98E-04

 *** WARNING in fm/cp_fm_elpa.F:521 :: Setting real_kernel for ELPA failed ***

     7 Broy./Diag. 0.40E+00    1.7     0.00001045      -322.3501874960  3.13E-05

 *** WARNING in fm/cp_fm_elpa.F:521 :: Setting real_kernel for ELPA failed ***

     8 Broy./Diag. 0.40E+00    1.7     0.00000973      -322.3501336547  5.38E-05

 *** WARNING in fm/cp_fm_elpa.F:521 :: Setting real_kernel for ELPA failed ***

     9 Broy./Diag. 0.40E+00    1.7     0.00000376      -322.3501138953  1.98E-05

 *** WARNING in fm/cp_fm_elpa.F:521 :: Setting real_kernel for ELPA failed ***

    10 Broy./Diag. 0.40E+00    1.8     0.00000367      -322.3500971219  1.68E-05

 *** WARNING in fm/cp_fm_elpa.F:521 :: Setting real_kernel for ELPA failed ***

    11 Broy./Diag. 0.40E+00    1.8     0.00000191      -322.3500945578  2.56E-06

 *** WARNING in fm/cp_fm_elpa.F:521 :: Setting real_kernel for ELPA failed ***

    12 Broy./Diag. 0.40E+00    1.8     0.00000116      -322.3500965209 -1.96E-06

 *** WARNING in fm/cp_fm_elpa.F:521 :: Setting real_kernel for ELPA failed ***

    13 Broy./Diag. 0.40E+00    1.8     0.00000078      -322.3500964994  2.15E-08

  *** SCF run converged in    13 steps ***


  Electronic density on regular grids:       -217.9999999989        0.0000000011
  Core density on regular grids:              219.9999999998       -0.0000000002
  Total charge density on r-space grids:        2.0000000010
  Total charge density g-space grids:           2.0000000010

  Overlap energy of the core charge distribution:               0.00001410161390
  Self energy of the core charge distribution:               -766.83425392616255
  Core Hamiltonian energy:                                    231.14862916406636
  Hartree energy:                                             308.92276699783872
  Exchange-correlation energy:                                -95.46989340719730
  Dispersion energy:                                           -0.11735942956885
  Electronic entropic energy:                                  -0.00000000000000
  Fermi energy:                                                -0.26501995341344

  Total energy:                                              -322.35009649940969

 ENERGY| Total FORCE_EVAL ( QS ) energy [hartree]           -322.350093261307848

 OPT| **************************************************************************
 OPT| Step number                                                             60
 OPT| Optimization method                                                   BFGS
 OPT| Total energy [hartree]                                     -322.3500932613
 OPT| Effective energy change [hartree]                            -0.0000201807
 OPT| Predicted energy change [hartree]                            -0.0000141987
 OPT| Scaling factor                                                0.1463567712
 OPT| Step size                                                     0.0368371467
 OPT| Trust radius                                                  0.3779452266
 OPT| Decrease in energy                                                     YES
 OPT| Used time [s]                                                       23.339
 OPT|
 OPT| Maximum step size                                             0.0368371467
 OPT| Convergence limit for maximum step size                       0.0030000000
 OPT| Maximum step size is converged                                          NO
 OPT|
 OPT| RMS step size                                                 0.0048729293
 OPT| Convergence limit for RMS step size                           0.0015000000
 OPT| RMS step size is converged                                              NO
 OPT|
 OPT| Maximum gradient                                              0.0009837531
 OPT| Convergence limit for maximum gradient                        0.0004500000
 OPT| Maximum gradient is converged                                           NO
 OPT|
 OPT| RMS gradient                                                  0.0002472652
 OPT| Convergence limit for RMS gradient                            0.0003000000
 OPT| RMS gradient is converged                                              YES
 OPT| **************************************************************************
 OPT| Estimated peak process memory after this step [MiB]                    716

 --------------------------
 OPTIMIZATION STEP:     61
 --------------------------

 *** WARNING in fm/cp_fm_elpa.F:521 :: Setting real_kernel for ELPA failed ***


 Number of electrons:                                                        218
 Number of occupied orbitals:                                                109
 Number of molecular orbitals:                                               146

 Number of orbital functions:                                                723
 Number of independent orbital functions:                                    723

 *** WARNING in fm/cp_fm_elpa.F:521 :: Setting real_kernel for ELPA failed ***


 Extrapolation method: ASPC


 SCF WAVEFUNCTION OPTIMIZATION

  Step     Update method      Time    Convergence         Total energy    Change
  ------------------------------------------------------------------------------

 *** WARNING in fm/cp_fm_elpa.F:521 :: Setting real_kernel for ELPA failed ***

     1 Broy./Diag. 0.40E+00    1.2     0.00437389      -322.3499919081 -3.22E+02

 *** WARNING in fm/cp_fm_elpa.F:521 :: Setting real_kernel for ELPA failed ***

     2 Broy./Diag. 0.40E+00    1.6     0.00050058      -322.3491657710  8.26E-04

 *** WARNING in fm/cp_fm_elpa.F:521 :: Setting real_kernel for ELPA failed ***

     3 Broy./Diag. 0.40E+00    1.6     0.00022192      -322.3496700908 -5.04E-04

 *** WARNING in fm/cp_fm_elpa.F:521 :: Setting real_kernel for ELPA failed ***

     4 Broy./Diag. 0.40E+00    1.7     0.00012692      -322.3503534735 -6.83E-04

 *** WARNING in fm/cp_fm_elpa.F:521 :: Setting real_kernel for ELPA failed ***

     5 Broy./Diag. 0.40E+00    1.7     0.00002926      -322.3501570925  1.96E-04

 *** WARNING in fm/cp_fm_elpa.F:521 :: Setting real_kernel for ELPA failed ***

     6 Broy./Diag. 0.40E+00    1.7     0.00000765      -322.3501554668  1.63E-06

 *** WARNING in fm/cp_fm_elpa.F:521 :: Setting real_kernel for ELPA failed ***

     7 Broy./Diag. 0.40E+00    1.7     0.00000346      -322.3501412685  1.42E-05

 *** WARNING in fm/cp_fm_elpa.F:521 :: Setting real_kernel for ELPA failed ***

     8 Broy./Diag. 0.40E+00    1.8     0.00000535      -322.3501568256 -1.56E-05

 *** WARNING in fm/cp_fm_elpa.F:521 :: Setting real_kernel for ELPA failed ***

     9 Broy./Diag. 0.40E+00    1.8     0.00000371      -322.3501472280  9.60E-06

 *** WARNING in fm/cp_fm_elpa.F:521 :: Setting real_kernel for ELPA failed ***

    10 Broy./Diag. 0.40E+00    1.8     0.00000238      -322.3501353948  1.18E-05

 *** WARNING in fm/cp_fm_elpa.F:521 :: Setting real_kernel for ELPA failed ***

    11 Broy./Diag. 0.40E+00    1.8     0.00000150      -322.3501271590  8.24E-06

 *** WARNING in fm/cp_fm_elpa.F:521 :: Setting real_kernel for ELPA failed ***

    12 Broy./Diag. 0.40E+00    1.8     0.00000095      -322.3501237051  3.45E-06

  *** SCF run converged in    12 steps ***


  Electronic density on regular grids:       -217.9999999989        0.0000000011
  Core density on regular grids:              219.9999999998       -0.0000000002
  Total charge density on r-space grids:        2.0000000010
  Total charge density g-space grids:           2.0000000010

  Overlap energy of the core charge distribution:               0.00001411694590
  Self energy of the core charge distribution:               -766.83425392616255
  Core Hamiltonian energy:                                    231.14983836302056
  Hartree energy:                                             308.92186715465607
  Exchange-correlation energy:                                -95.47023910457044
  Dispersion energy:                                           -0.11735030894980
  Electronic entropic energy:                                  -0.00000000000000
  Fermi energy:                                                -0.26507159262525

  Total energy:                                              -322.35012370506035

 ENERGY| Total FORCE_EVAL ( QS ) energy [hartree]           -322.350121337669350

 OPT| **************************************************************************
 OPT| Step number                                                             61
 OPT| Optimization method                                                   BFGS
 OPT| Total energy [hartree]                                     -322.3501213377
 OPT| Effective energy change [hartree]                            -0.0000280764
 OPT| Predicted energy change [hartree]                            -0.0000197185
 OPT| Scaling factor                                                0.1463567712
 OPT| Step size                                                     0.0170946463
 OPT| Trust radius                                                  0.3779452266
 OPT| Decrease in energy                                                     YES
 OPT| Used time [s]                                                       22.595
 OPT|
 OPT| Maximum step size                                             0.0170946463
 OPT| Convergence limit for maximum step size                       0.0030000000
 OPT| Maximum step size is converged                                          NO
 OPT|
 OPT| RMS step size                                                 0.0041606982
 OPT| Convergence limit for RMS step size                           0.0015000000
 OPT| RMS step size is converged                                              NO
 OPT|
 OPT| Maximum gradient                                              0.0008908147
 OPT| Convergence limit for maximum gradient                        0.0004500000
 OPT| Maximum gradient is converged                                           NO
 OPT|
 OPT| RMS gradient                                                  0.0002641751
 OPT| Convergence limit for RMS gradient                            0.0003000000
 OPT| RMS gradient is converged                                              YES
 OPT| **************************************************************************
 OPT| Estimated peak process memory after this step [MiB]                    716

 --------------------------
 OPTIMIZATION STEP:     62
 --------------------------

 *** WARNING in fm/cp_fm_elpa.F:521 :: Setting real_kernel for ELPA failed ***


 Number of electrons:                                                        218
 Number of occupied orbitals:                                                109
 Number of molecular orbitals:                                               146

 Number of orbital functions:                                                723
 Number of independent orbital functions:                                    723

 *** WARNING in fm/cp_fm_elpa.F:521 :: Setting real_kernel for ELPA failed ***


 Extrapolation method: ASPC


 SCF WAVEFUNCTION OPTIMIZATION

  Step     Update method      Time    Convergence         Total energy    Change
  ------------------------------------------------------------------------------

 *** WARNING in fm/cp_fm_elpa.F:521 :: Setting real_kernel for ELPA failed ***

     1 Broy./Diag. 0.40E+00    1.2     0.00326890      -322.3500172829 -3.22E+02

 *** WARNING in fm/cp_fm_elpa.F:521 :: Setting real_kernel for ELPA failed ***

     2 Broy./Diag. 0.40E+00    1.6     0.00065786      -322.3520294570 -2.01E-03

 *** WARNING in fm/cp_fm_elpa.F:521 :: Setting real_kernel for ELPA failed ***

     3 Broy./Diag. 0.40E+00    1.6     0.00030154      -322.3507975297  1.23E-03

 *** WARNING in fm/cp_fm_elpa.F:521 :: Setting real_kernel for ELPA failed ***

     4 Broy./Diag. 0.40E+00    1.7     0.00016164      -322.3504953964  3.02E-04

 *** WARNING in fm/cp_fm_elpa.F:521 :: Setting real_kernel for ELPA failed ***

     5 Broy./Diag. 0.40E+00    1.7     0.00003457      -322.3503706278  1.25E-04

 *** WARNING in fm/cp_fm_elpa.F:521 :: Setting real_kernel for ELPA failed ***

     6 Broy./Diag. 0.40E+00    1.7     0.00001341      -322.3503013969  6.92E-05

 *** WARNING in fm/cp_fm_elpa.F:521 :: Setting real_kernel for ELPA failed ***

     7 Broy./Diag. 0.40E+00    1.7     0.00000949      -322.3502696747  3.17E-05

 *** WARNING in fm/cp_fm_elpa.F:521 :: Setting real_kernel for ELPA failed ***

     8 Broy./Diag. 0.40E+00    1.8     0.00000786      -322.3502257359  4.39E-05

 *** WARNING in fm/cp_fm_elpa.F:521 :: Setting real_kernel for ELPA failed ***

     9 Broy./Diag. 0.40E+00    1.8     0.00000566      -322.3501894502  3.63E-05

 *** WARNING in fm/cp_fm_elpa.F:521 :: Setting real_kernel for ELPA failed ***

    10 Broy./Diag. 0.40E+00    1.8     0.00000413      -322.3501623694  2.71E-05

 *** WARNING in fm/cp_fm_elpa.F:521 :: Setting real_kernel for ELPA failed ***

    11 Broy./Diag. 0.40E+00    1.8     0.00000208      -322.3501522368  1.01E-05

 *** WARNING in fm/cp_fm_elpa.F:521 :: Setting real_kernel for ELPA failed ***

    12 Broy./Diag. 0.40E+00    1.8     0.00000109      -322.3501515499  6.87E-07

 *** WARNING in fm/cp_fm_elpa.F:521 :: Setting real_kernel for ELPA failed ***

    13 Broy./Diag. 0.40E+00    1.8     0.00000082      -322.3501495186  2.03E-06

  *** SCF run converged in    13 steps ***


  Electronic density on regular grids:       -217.9999999989        0.0000000011
  Core density on regular grids:              219.9999999998       -0.0000000002
  Total charge density on r-space grids:        2.0000000009
  Total charge density g-space grids:           2.0000000009

  Overlap energy of the core charge distribution:               0.00001410740577
  Self energy of the core charge distribution:               -766.83425392616255
  Core Hamiltonian energy:                                    231.14608424945627
  Hartree energy:                                             308.92458603079297
  Exchange-correlation energy:                                -95.46924023608011
  Dispersion energy:                                           -0.11733974401781
  Electronic entropic energy:                                  -0.00000000000000
  Fermi energy:                                                -0.26510607334058

  Total energy:                                              -322.35014951860546

 ENERGY| Total FORCE_EVAL ( QS ) energy [hartree]           -322.350146698731976

 OPT| **************************************************************************
 OPT| Step number                                                             62
 OPT| Optimization method                                                   BFGS
 OPT| Total energy [hartree]                                     -322.3501466987
 OPT| Effective energy change [hartree]                            -0.0000253611
 OPT| Predicted energy change [hartree]                            -0.0000202140
 OPT| Scaling factor                                                0.1463567712
 OPT| Step size                                                     0.0346339404
 OPT| Trust radius                                                  0.3779452266
 OPT| Decrease in energy                                                     YES
 OPT| Used time [s]                                                       24.429
 OPT|
 OPT| Maximum step size                                             0.0346339404
 OPT| Convergence limit for maximum step size                       0.0030000000
 OPT| Maximum step size is converged                                          NO
 OPT|
 OPT| RMS step size                                                 0.0052022389
 OPT| Convergence limit for RMS step size                           0.0015000000
 OPT| RMS step size is converged                                              NO
 OPT|
 OPT| Maximum gradient                                              0.0011017583
 OPT| Convergence limit for maximum gradient                        0.0004500000
 OPT| Maximum gradient is converged                                           NO
 OPT|
 OPT| RMS gradient                                                  0.0002646520
 OPT| Convergence limit for RMS gradient                            0.0003000000
 OPT| RMS gradient is converged                                              YES
 OPT| **************************************************************************
 OPT| Estimated peak process memory after this step [MiB]                    716

 --------------------------
 OPTIMIZATION STEP:     63
 --------------------------

 *** WARNING in fm/cp_fm_elpa.F:521 :: Setting real_kernel for ELPA failed ***


 Number of electrons:                                                        218
 Number of occupied orbitals:                                                109
 Number of molecular orbitals:                                               146

 Number of orbital functions:                                                723
 Number of independent orbital functions:                                    723

 *** WARNING in fm/cp_fm_elpa.F:521 :: Setting real_kernel for ELPA failed ***


 Extrapolation method: ASPC


 SCF WAVEFUNCTION OPTIMIZATION

  Step     Update method      Time    Convergence         Total energy    Change
  ------------------------------------------------------------------------------

 *** WARNING in fm/cp_fm_elpa.F:521 :: Setting real_kernel for ELPA failed ***

     1 Broy./Diag. 0.40E+00    1.2     0.00389708      -322.3500886781 -3.22E+02

 *** WARNING in fm/cp_fm_elpa.F:521 :: Setting real_kernel for ELPA failed ***

     2 Broy./Diag. 0.40E+00    1.6     0.00052238      -322.3471980889  2.89E-03

 *** WARNING in fm/cp_fm_elpa.F:521 :: Setting real_kernel for ELPA failed ***

     3 Broy./Diag. 0.40E+00    1.6     0.00021743      -322.3497677680 -2.57E-03

 *** WARNING in fm/cp_fm_elpa.F:521 :: Setting real_kernel for ELPA failed ***

     4 Broy./Diag. 0.40E+00    1.6     0.00011793      -322.3498472680 -7.95E-05

 *** WARNING in fm/cp_fm_elpa.F:521 :: Setting real_kernel for ELPA failed ***

     5 Broy./Diag. 0.40E+00    1.6     0.00003328      -322.3502214714 -3.74E-04

 *** WARNING in fm/cp_fm_elpa.F:521 :: Setting real_kernel for ELPA failed ***

     6 Broy./Diag. 0.40E+00    1.6     0.00000853      -322.3501165148  1.05E-04

 *** WARNING in fm/cp_fm_elpa.F:521 :: Setting real_kernel for ELPA failed ***

     7 Broy./Diag. 0.40E+00    1.7     0.00000394      -322.3501252093 -8.69E-06

 *** WARNING in fm/cp_fm_elpa.F:521 :: Setting real_kernel for ELPA failed ***

     8 Broy./Diag. 0.40E+00    1.7     0.00000412      -322.3501386143 -1.34E-05

 *** WARNING in fm/cp_fm_elpa.F:521 :: Setting real_kernel for ELPA failed ***

     9 Broy./Diag. 0.40E+00    1.7     0.00000292      -322.3501565286 -1.79E-05

 *** WARNING in fm/cp_fm_elpa.F:521 :: Setting real_kernel for ELPA failed ***

    10 Broy./Diag. 0.40E+00    1.8     0.00000202      -322.3501628389 -6.31E-06

 *** WARNING in fm/cp_fm_elpa.F:521 :: Setting real_kernel for ELPA failed ***

    11 Broy./Diag. 0.40E+00    1.8     0.00000123      -322.3501646113 -1.77E-06

 *** WARNING in fm/cp_fm_elpa.F:521 :: Setting real_kernel for ELPA failed ***

    12 Broy./Diag. 0.40E+00    1.8     0.00000079      -322.3501621161  2.50E-06

  *** SCF run converged in    12 steps ***


  Electronic density on regular grids:       -217.9999999989        0.0000000011
  Core density on regular grids:              219.9999999998       -0.0000000002
  Total charge density on r-space grids:        2.0000000009
  Total charge density g-space grids:           2.0000000009

  Overlap energy of the core charge distribution:               0.00001409325961
  Self energy of the core charge distribution:               -766.83425392616255
  Core Hamiltonian energy:                                    231.14210641519333
  Hartree energy:                                             308.92744189475377
  Exchange-correlation energy:                                -95.46813801896351
  Dispersion energy:                                           -0.11733257413218
  Electronic entropic energy:                                  -0.00000000000000
  Fermi energy:                                                -0.26516042188605

  Total energy:                                              -322.35016211605148

 ENERGY| Total FORCE_EVAL ( QS ) energy [hartree]           -322.350162672101249

 OPT| **************************************************************************
 OPT| Step number                                                             63
 OPT| Optimization method                                                   BFGS
 OPT| Total energy [hartree]                                     -322.3501626721
 OPT| Effective energy change [hartree]                            -0.0000159734
 OPT| Predicted energy change [hartree]                            -0.0000114853
 OPT| Scaling factor                                                0.1463567712
 OPT| Step size                                                     0.0159472564
 OPT| Trust radius                                                  0.3779452266
 OPT| Decrease in energy                                                     YES
 OPT| Used time [s]                                                       21.856
 OPT|
 OPT| Maximum step size                                             0.0159472564
 OPT| Convergence limit for maximum step size                       0.0030000000
 OPT| Maximum step size is converged                                          NO
 OPT|
 OPT| RMS step size                                                 0.0028705772
 OPT| Convergence limit for RMS step size                           0.0015000000
 OPT| RMS step size is converged                                              NO
 OPT|
 OPT| Maximum gradient                                              0.0010312366
 OPT| Convergence limit for maximum gradient                        0.0004500000
 OPT| Maximum gradient is converged                                           NO
 OPT|
 OPT| RMS gradient                                                  0.0002354013
 OPT| Convergence limit for RMS gradient                            0.0003000000
 OPT| RMS gradient is converged                                              YES
 OPT| **************************************************************************
 OPT| Estimated peak process memory after this step [MiB]                    716

 --------------------------
 OPTIMIZATION STEP:     64
 --------------------------

 *** WARNING in fm/cp_fm_elpa.F:521 :: Setting real_kernel for ELPA failed ***


 Number of electrons:                                                        218
 Number of occupied orbitals:                                                109
 Number of molecular orbitals:                                               146

 Number of orbital functions:                                                723
 Number of independent orbital functions:                                    723

 *** WARNING in fm/cp_fm_elpa.F:521 :: Setting real_kernel for ELPA failed ***


 Extrapolation method: ASPC


 SCF WAVEFUNCTION OPTIMIZATION

  Step     Update method      Time    Convergence         Total energy    Change
  ------------------------------------------------------------------------------

 *** WARNING in fm/cp_fm_elpa.F:521 :: Setting real_kernel for ELPA failed ***

     1 Broy./Diag. 0.40E+00    1.1     0.00238633      -322.3501266726 -3.22E+02

 *** WARNING in fm/cp_fm_elpa.F:521 :: Setting real_kernel for ELPA failed ***

     2 Broy./Diag. 0.40E+00    1.5     0.00042724      -322.3518109900 -1.68E-03

 *** WARNING in fm/cp_fm_elpa.F:521 :: Setting real_kernel for ELPA failed ***

     3 Broy./Diag. 0.40E+00    1.6     0.00012858      -322.3505718479  1.24E-03

 *** WARNING in fm/cp_fm_elpa.F:521 :: Setting real_kernel for ELPA failed ***

     4 Broy./Diag. 0.40E+00    1.6     0.00006586      -322.3505112800  6.06E-05

 *** WARNING in fm/cp_fm_elpa.F:521 :: Setting real_kernel for ELPA failed ***

     5 Broy./Diag. 0.40E+00    1.6     0.00002413      -322.3503324709  1.79E-04

 *** WARNING in fm/cp_fm_elpa.F:521 :: Setting real_kernel for ELPA failed ***

     6 Broy./Diag. 0.40E+00    1.6     0.00001146      -322.3503123845  2.01E-05

 *** WARNING in fm/cp_fm_elpa.F:521 :: Setting real_kernel for ELPA failed ***

     7 Broy./Diag. 0.40E+00    1.7     0.00000750      -322.3502890978  2.33E-05

 *** WARNING in fm/cp_fm_elpa.F:521 :: Setting real_kernel for ELPA failed ***

     8 Broy./Diag. 0.40E+00    1.7     0.00000708      -322.3502532640  3.58E-05

 *** WARNING in fm/cp_fm_elpa.F:521 :: Setting real_kernel for ELPA failed ***

     9 Broy./Diag. 0.40E+00    1.7     0.00000447      -322.3502175202  3.57E-05

 *** WARNING in fm/cp_fm_elpa.F:521 :: Setting real_kernel for ELPA failed ***

    10 Broy./Diag. 0.40E+00    1.8     0.00000382      -322.3501898605  2.77E-05

 *** WARNING in fm/cp_fm_elpa.F:521 :: Setting real_kernel for ELPA failed ***

    11 Broy./Diag. 0.40E+00    1.8     0.00000150      -322.3501809366  8.92E-06

 *** WARNING in fm/cp_fm_elpa.F:521 :: Setting real_kernel for ELPA failed ***

    12 Broy./Diag. 0.40E+00    1.8     0.00000092      -322.3501803838  5.53E-07

  *** SCF run converged in    12 steps ***


  Electronic density on regular grids:       -217.9999999989        0.0000000011
  Core density on regular grids:              219.9999999998       -0.0000000002
  Total charge density on r-space grids:        2.0000000009
  Total charge density g-space grids:           2.0000000009

  Overlap energy of the core charge distribution:               0.00001407574063
  Self energy of the core charge distribution:               -766.83425392616255
  Core Hamiltonian energy:                                    231.13876741578875
  Hartree energy:                                             308.92982788680183
  Exchange-correlation energy:                                -95.46721375262715
  Dispersion energy:                                           -0.11732208338560
  Electronic entropic energy:                                  -0.00000000000000
  Fermi energy:                                                -0.26516712100264

  Total energy:                                              -322.35018038384408

 ENERGY| Total FORCE_EVAL ( QS ) energy [hartree]           -322.350180232667526

 OPT| **************************************************************************
 OPT| Step number                                                             64
 OPT| Optimization method                                                   BFGS
 OPT| Total energy [hartree]                                     -322.3501802327
 OPT| Effective energy change [hartree]                            -0.0000175606
 OPT| Predicted energy change [hartree]                            -0.0000124904
 OPT| Scaling factor                                                0.1463567712
 OPT| Step size                                                     0.0249242212
 OPT| Trust radius                                                  0.3779452266
 OPT| Decrease in energy                                                     YES
 OPT| Used time [s]                                                       21.626
 OPT|
 OPT| Maximum step size                                             0.0249242212
 OPT| Convergence limit for maximum step size                       0.0030000000
 OPT| Maximum step size is converged                                          NO
 OPT|
 OPT| RMS step size                                                 0.0031477646
 OPT| Convergence limit for RMS step size                           0.0015000000
 OPT| RMS step size is converged                                              NO
 OPT|
 OPT| Maximum gradient                                              0.0007967602
 OPT| Convergence limit for maximum gradient                        0.0004500000
 OPT| Maximum gradient is converged                                           NO
 OPT|
 OPT| RMS gradient                                                  0.0001868225
 OPT| Convergence limit for RMS gradient                            0.0003000000
 OPT| RMS gradient is converged                                              YES
 OPT| **************************************************************************
 OPT| Estimated peak process memory after this step [MiB]                    716

 --------------------------
 OPTIMIZATION STEP:     65
 --------------------------

 *** WARNING in fm/cp_fm_elpa.F:521 :: Setting real_kernel for ELPA failed ***


 Number of electrons:                                                        218
 Number of occupied orbitals:                                                109
 Number of molecular orbitals:                                               146

 Number of orbital functions:                                                723
 Number of independent orbital functions:                                    723

 *** WARNING in fm/cp_fm_elpa.F:521 :: Setting real_kernel for ELPA failed ***


 Extrapolation method: ASPC


 SCF WAVEFUNCTION OPTIMIZATION

  Step     Update method      Time    Convergence         Total energy    Change
  ------------------------------------------------------------------------------

 *** WARNING in fm/cp_fm_elpa.F:521 :: Setting real_kernel for ELPA failed ***

     1 Broy./Diag. 0.40E+00    1.1     0.00358497      -322.3501172422 -3.22E+02

 *** WARNING in fm/cp_fm_elpa.F:521 :: Setting real_kernel for ELPA failed ***

     2 Broy./Diag. 0.40E+00    1.5     0.00088772      -322.3471892584  2.93E-03

 *** WARNING in fm/cp_fm_elpa.F:521 :: Setting real_kernel for ELPA failed ***

     3 Broy./Diag. 0.40E+00    1.6     0.00022788      -322.3501386619 -2.95E-03

 *** WARNING in fm/cp_fm_elpa.F:521 :: Setting real_kernel for ELPA failed ***

     4 Broy./Diag. 0.40E+00    1.6     0.00014407      -322.3501053282  3.33E-05

 *** WARNING in fm/cp_fm_elpa.F:521 :: Setting real_kernel for ELPA failed ***

     5 Broy./Diag. 0.40E+00    1.6     0.00003973      -322.3504709390 -3.66E-04

 *** WARNING in fm/cp_fm_elpa.F:521 :: Setting real_kernel for ELPA failed ***

     6 Broy./Diag. 0.40E+00    1.6     0.00001788      -322.3502761324  1.95E-04

 *** WARNING in fm/cp_fm_elpa.F:521 :: Setting real_kernel for ELPA failed ***

     7 Broy./Diag. 0.40E+00    1.7     0.00000807      -322.3502457451  3.04E-05

 *** WARNING in fm/cp_fm_elpa.F:521 :: Setting real_kernel for ELPA failed ***

     8 Broy./Diag. 0.40E+00    1.7     0.00000925      -322.3502230833  2.27E-05

 *** WARNING in fm/cp_fm_elpa.F:521 :: Setting real_kernel for ELPA failed ***

     9 Broy./Diag. 0.40E+00    1.7     0.00000416      -322.3502142418  8.84E-06

 *** WARNING in fm/cp_fm_elpa.F:521 :: Setting real_kernel for ELPA failed ***

    10 Broy./Diag. 0.40E+00    1.8     0.00000451      -322.3502014572  1.28E-05

 *** WARNING in fm/cp_fm_elpa.F:521 :: Setting real_kernel for ELPA failed ***

    11 Broy./Diag. 0.40E+00    1.8     0.00000249      -322.3501989289  2.53E-06

 *** WARNING in fm/cp_fm_elpa.F:521 :: Setting real_kernel for ELPA failed ***

    12 Broy./Diag. 0.40E+00    1.8     0.00000113      -322.3501986952  2.34E-07

 *** WARNING in fm/cp_fm_elpa.F:521 :: Setting real_kernel for ELPA failed ***

    13 Broy./Diag. 0.40E+00    1.8     0.00000060      -322.3502002897 -1.59E-06

  *** SCF run converged in    13 steps ***


  Electronic density on regular grids:       -217.9999999989        0.0000000011
  Core density on regular grids:              219.9999999998       -0.0000000002
  Total charge density on r-space grids:        2.0000000009
  Total charge density g-space grids:           2.0000000009

  Overlap energy of the core charge distribution:               0.00001406618763
  Self energy of the core charge distribution:               -766.83425392616255
  Core Hamiltonian energy:                                    231.13589938798418
  Hartree energy:                                             308.93188044253861
  Exchange-correlation energy:                                -95.46643619693826
  Dispersion energy:                                           -0.11730406326937
  Electronic entropic energy:                                  -0.00000000000000
  Fermi energy:                                                -0.26506944309256

  Total energy:                                              -322.35020028965977

 ENERGY| Total FORCE_EVAL ( QS ) energy [hartree]           -322.350196376450128

 OPT| **************************************************************************
 OPT| Step number                                                             65
 OPT| Optimization method                                                   BFGS
 OPT| Total energy [hartree]                                     -322.3501963765
 OPT| Effective energy change [hartree]                            -0.0000161438
 OPT| Predicted energy change [hartree]                            -0.0000125747
 OPT| Scaling factor                                                0.1463567712
 OPT| Step size                                                     0.0536559851
 OPT| Trust radius                                                  0.3779452266
 OPT| Decrease in energy                                                     YES
 OPT| Used time [s]                                                       23.447
 OPT|
 OPT| Maximum step size                                             0.0536559851
 OPT| Convergence limit for maximum step size                       0.0030000000
 OPT| Maximum step size is converged                                          NO
 OPT|
 OPT| RMS step size                                                 0.0049679682
 OPT| Convergence limit for RMS step size                           0.0015000000
 OPT| RMS step size is converged                                              NO
 OPT|
 OPT| Maximum gradient                                              0.0005861541
 OPT| Convergence limit for maximum gradient                        0.0004500000
 OPT| Maximum gradient is converged                                           NO
 OPT|
 OPT| RMS gradient                                                  0.0001712563
 OPT| Convergence limit for RMS gradient                            0.0003000000
 OPT| RMS gradient is converged                                              YES
 OPT| **************************************************************************
 OPT| Estimated peak process memory after this step [MiB]                    716

 --------------------------
 OPTIMIZATION STEP:     66
 --------------------------

 *** WARNING in fm/cp_fm_elpa.F:521 :: Setting real_kernel for ELPA failed ***


 Number of electrons:                                                        218
 Number of occupied orbitals:                                                109
 Number of molecular orbitals:                                               146

 Number of orbital functions:                                                723
 Number of independent orbital functions:                                    723

 *** WARNING in fm/cp_fm_elpa.F:521 :: Setting real_kernel for ELPA failed ***


 Extrapolation method: ASPC


 SCF WAVEFUNCTION OPTIMIZATION

  Step     Update method      Time    Convergence         Total energy    Change
  ------------------------------------------------------------------------------

 *** WARNING in fm/cp_fm_elpa.F:521 :: Setting real_kernel for ELPA failed ***

     1 Broy./Diag. 0.40E+00    1.1     0.00302753      -322.3501405747 -3.22E+02

 *** WARNING in fm/cp_fm_elpa.F:521 :: Setting real_kernel for ELPA failed ***

     2 Broy./Diag. 0.40E+00    1.5     0.00083414      -322.3477160499  2.42E-03

 *** WARNING in fm/cp_fm_elpa.F:521 :: Setting real_kernel for ELPA failed ***

     3 Broy./Diag. 0.40E+00    1.6     0.00016303      -322.3498885994 -2.17E-03

 *** WARNING in fm/cp_fm_elpa.F:521 :: Setting real_kernel for ELPA failed ***

     4 Broy./Diag. 0.40E+00    1.6     0.00010761      -322.3502375108 -3.49E-04

 *** WARNING in fm/cp_fm_elpa.F:521 :: Setting real_kernel for ELPA failed ***

     5 Broy./Diag. 0.40E+00    1.6     0.00003467      -322.3505053760 -2.68E-04

 *** WARNING in fm/cp_fm_elpa.F:521 :: Setting real_kernel for ELPA failed ***

     6 Broy./Diag. 0.40E+00    1.6     0.00001025      -322.3503244100  1.81E-04

 *** WARNING in fm/cp_fm_elpa.F:521 :: Setting real_kernel for ELPA failed ***

     7 Broy./Diag. 0.40E+00    1.7     0.00000642      -322.3502994394  2.50E-05

 *** WARNING in fm/cp_fm_elpa.F:521 :: Setting real_kernel for ELPA failed ***

     8 Broy./Diag. 0.40E+00    1.7     0.00000765      -322.3502614783  3.80E-05

 *** WARNING in fm/cp_fm_elpa.F:521 :: Setting real_kernel for ELPA failed ***

     9 Broy./Diag. 0.40E+00    1.7     0.00000331      -322.3502412729  2.02E-05

 *** WARNING in fm/cp_fm_elpa.F:521 :: Setting real_kernel for ELPA failed ***

    10 Broy./Diag. 0.40E+00    1.8     0.00000370      -322.3502189056  2.24E-05

 *** WARNING in fm/cp_fm_elpa.F:521 :: Setting real_kernel for ELPA failed ***

    11 Broy./Diag. 0.40E+00    1.8     0.00000198      -322.3502096163  9.29E-06

 *** WARNING in fm/cp_fm_elpa.F:521 :: Setting real_kernel for ELPA failed ***

    12 Broy./Diag. 0.40E+00    1.8     0.00000119      -322.3502085407  1.08E-06

 *** WARNING in fm/cp_fm_elpa.F:521 :: Setting real_kernel for ELPA failed ***

    13 Broy./Diag. 0.40E+00    1.8     0.00000070      -322.3502077178  8.23E-07

  *** SCF run converged in    13 steps ***


  Electronic density on regular grids:       -217.9999999989        0.0000000011
  Core density on regular grids:              219.9999999998       -0.0000000002
  Total charge density on r-space grids:        2.0000000009
  Total charge density g-space grids:           2.0000000009

  Overlap energy of the core charge distribution:               0.00001408103474
  Self energy of the core charge distribution:               -766.83425392616255
  Core Hamiltonian energy:                                    231.13991375114404
  Hartree energy:                                             308.92891461875359
  Exchange-correlation energy:                                -95.46751145770236
  Dispersion energy:                                           -0.11728478481743
  Electronic entropic energy:                                  -0.00000000000000
  Fermi energy:                                                -0.26496363616487

  Total energy:                                              -322.35020771775004

 ENERGY| Total FORCE_EVAL ( QS ) energy [hartree]           -322.350209760070641

 OPT| **************************************************************************
 OPT| Step number                                                             66
 OPT| Optimization method                                                   BFGS
 OPT| Total energy [hartree]                                     -322.3502097601
 OPT| Effective energy change [hartree]                            -0.0000133836
 OPT| Predicted energy change [hartree]                            -0.0000103791
 OPT| Scaling factor                                                0.1463567712
 OPT| Step size                                                     0.0432082589
 OPT| Trust radius                                                  0.3779452266
 OPT| Decrease in energy                                                     YES
 OPT| Used time [s]                                                       23.428
 OPT|
 OPT| Maximum step size                                             0.0432082589
 OPT| Convergence limit for maximum step size                       0.0030000000
 OPT| Maximum step size is converged                                          NO
 OPT|
 OPT| RMS step size                                                 0.0039768639
 OPT| Convergence limit for RMS step size                           0.0015000000
 OPT| RMS step size is converged                                              NO
 OPT|
 OPT| Maximum gradient                                              0.0005613242
 OPT| Convergence limit for maximum gradient                        0.0004500000
 OPT| Maximum gradient is converged                                           NO
 OPT|
 OPT| RMS gradient                                                  0.0001490204
 OPT| Convergence limit for RMS gradient                            0.0003000000
 OPT| RMS gradient is converged                                              YES
 OPT| **************************************************************************
 OPT| Estimated peak process memory after this step [MiB]                    716

 --------------------------
 OPTIMIZATION STEP:     67
 --------------------------

 *** WARNING in fm/cp_fm_elpa.F:521 :: Setting real_kernel for ELPA failed ***


 Number of electrons:                                                        218
 Number of occupied orbitals:                                                109
 Number of molecular orbitals:                                               146

 Number of orbital functions:                                                723
 Number of independent orbital functions:                                    723

 *** WARNING in fm/cp_fm_elpa.F:521 :: Setting real_kernel for ELPA failed ***


 Extrapolation method: ASPC


 SCF WAVEFUNCTION OPTIMIZATION

  Step     Update method      Time    Convergence         Total energy    Change
  ------------------------------------------------------------------------------

 *** WARNING in fm/cp_fm_elpa.F:521 :: Setting real_kernel for ELPA failed ***

     1 Broy./Diag. 0.40E+00    1.1     0.00489956      -322.3500928996 -3.22E+02

 *** WARNING in fm/cp_fm_elpa.F:521 :: Setting real_kernel for ELPA failed ***

     2 Broy./Diag. 0.40E+00    1.5     0.00048421      -322.3502642226 -1.71E-04

 *** WARNING in fm/cp_fm_elpa.F:521 :: Setting real_kernel for ELPA failed ***

     3 Broy./Diag. 0.40E+00    1.6     0.00029458      -322.3506003737 -3.36E-04

 *** WARNING in fm/cp_fm_elpa.F:521 :: Setting real_kernel for ELPA failed ***

     4 Broy./Diag. 0.40E+00    1.6     0.00008677      -322.3506028226 -2.45E-06

 *** WARNING in fm/cp_fm_elpa.F:521 :: Setting real_kernel for ELPA failed ***

     5 Broy./Diag. 0.40E+00    1.6     0.00002660      -322.3504825916  1.20E-04

 *** WARNING in fm/cp_fm_elpa.F:521 :: Setting real_kernel for ELPA failed ***

     6 Broy./Diag. 0.40E+00    1.6     0.00001898      -322.3503979645  8.46E-05

 *** WARNING in fm/cp_fm_elpa.F:521 :: Setting real_kernel for ELPA failed ***

     7 Broy./Diag. 0.40E+00    1.7     0.00001441      -322.3503325567  6.54E-05

 *** WARNING in fm/cp_fm_elpa.F:521 :: Setting real_kernel for ELPA failed ***

     8 Broy./Diag. 0.40E+00    1.7     0.00001233      -322.3502921046  4.05E-05

 *** WARNING in fm/cp_fm_elpa.F:521 :: Setting real_kernel for ELPA failed ***

     9 Broy./Diag. 0.40E+00    1.7     0.00000522      -322.3502491005  4.30E-05

 *** WARNING in fm/cp_fm_elpa.F:521 :: Setting real_kernel for ELPA failed ***

    10 Broy./Diag. 0.40E+00    1.8     0.00000532      -322.3502322955  1.68E-05

 *** WARNING in fm/cp_fm_elpa.F:521 :: Setting real_kernel for ELPA failed ***

    11 Broy./Diag. 0.40E+00    1.8     0.00000237      -322.3502270884  5.21E-06

 *** WARNING in fm/cp_fm_elpa.F:521 :: Setting real_kernel for ELPA failed ***

    12 Broy./Diag. 0.40E+00    1.8     0.00000179      -322.3502271656 -7.72E-08

 *** WARNING in fm/cp_fm_elpa.F:521 :: Setting real_kernel for ELPA failed ***

    13 Broy./Diag. 0.40E+00    1.8     0.00000086      -322.3502265089  6.57E-07

  *** SCF run converged in    13 steps ***


  Electronic density on regular grids:       -217.9999999989        0.0000000011
  Core density on regular grids:              219.9999999998       -0.0000000002
  Total charge density on r-space grids:        2.0000000009
  Total charge density g-space grids:           2.0000000009

  Overlap energy of the core charge distribution:               0.00001410036112
  Self energy of the core charge distribution:               -766.83425392616255
  Core Hamiltonian energy:                                    231.14354718197700
  Hartree energy:                                             308.92621644224914
  Exchange-correlation energy:                                -95.46849102167133
  Dispersion energy:                                           -0.11725928565338
  Electronic entropic energy:                                  -0.00000000000000
  Fermi energy:                                                -0.26481376879432

  Total energy:                                              -322.35022650889994

 ENERGY| Total FORCE_EVAL ( QS ) energy [hartree]           -322.350222660303587

 OPT| **************************************************************************
 OPT| Step number                                                             67
 OPT| Optimization method                                                   BFGS
 OPT| Total energy [hartree]                                     -322.3502226603
 OPT| Effective energy change [hartree]                            -0.0000129002
 OPT| Predicted energy change [hartree]                            -0.0000108825
 OPT| Scaling factor                                                0.1463567712
 OPT| Step size                                                     0.0661369605
 OPT| Trust radius                                                  0.3779452266
 OPT| Decrease in energy                                                     YES
 OPT| Used time [s]                                                       23.392
 OPT|
 OPT| Maximum step size                                             0.0661369605
 OPT| Convergence limit for maximum step size                       0.0030000000
 OPT| Maximum step size is converged                                          NO
 OPT|
 OPT| RMS step size                                                 0.0062738848
 OPT| Convergence limit for RMS step size                           0.0015000000
 OPT| RMS step size is converged                                              NO
 OPT|
 OPT| Maximum gradient                                              0.0005322353
 OPT| Convergence limit for maximum gradient                        0.0004500000
 OPT| Maximum gradient is converged                                           NO
 OPT|
 OPT| RMS gradient                                                  0.0001211352
 OPT| Convergence limit for RMS gradient                            0.0003000000
 OPT| RMS gradient is converged                                              YES
 OPT| **************************************************************************
 OPT| Estimated peak process memory after this step [MiB]                    716

 --------------------------
 OPTIMIZATION STEP:     68
 --------------------------

 *** WARNING in fm/cp_fm_elpa.F:521 :: Setting real_kernel for ELPA failed ***


 Number of electrons:                                                        218
 Number of occupied orbitals:                                                109
 Number of molecular orbitals:                                               146

 Number of orbital functions:                                                723
 Number of independent orbital functions:                                    723

 *** WARNING in fm/cp_fm_elpa.F:521 :: Setting real_kernel for ELPA failed ***


 Extrapolation method: ASPC


 SCF WAVEFUNCTION OPTIMIZATION

  Step     Update method      Time    Convergence         Total energy    Change
  ------------------------------------------------------------------------------

 *** WARNING in fm/cp_fm_elpa.F:521 :: Setting real_kernel for ELPA failed ***

     1 Broy./Diag. 0.40E+00    1.1     0.00294949      -322.3501528008 -3.22E+02

 *** WARNING in fm/cp_fm_elpa.F:521 :: Setting real_kernel for ELPA failed ***

     2 Broy./Diag. 0.40E+00    1.5     0.00082461      -322.3479135922  2.24E-03

 *** WARNING in fm/cp_fm_elpa.F:521 :: Setting real_kernel for ELPA failed ***

     3 Broy./Diag. 0.40E+00    1.6     0.00025873      -322.3500765803 -2.16E-03

 *** WARNING in fm/cp_fm_elpa.F:521 :: Setting real_kernel for ELPA failed ***

     4 Broy./Diag. 0.40E+00    1.6     0.00015789      -322.3502860633 -2.09E-04

 *** WARNING in fm/cp_fm_elpa.F:521 :: Setting real_kernel for ELPA failed ***

     5 Broy./Diag. 0.40E+00    1.6     0.00003971      -322.3505433374 -2.57E-04

 *** WARNING in fm/cp_fm_elpa.F:521 :: Setting real_kernel for ELPA failed ***

     6 Broy./Diag. 0.40E+00    1.6     0.00001053      -322.3503598265  1.84E-04

 *** WARNING in fm/cp_fm_elpa.F:521 :: Setting real_kernel for ELPA failed ***

     7 Broy./Diag. 0.40E+00    1.7     0.00000435      -322.3503323837  2.74E-05

 *** WARNING in fm/cp_fm_elpa.F:521 :: Setting real_kernel for ELPA failed ***

     8 Broy./Diag. 0.40E+00    1.7     0.00000478      -322.3502946844  3.77E-05

 *** WARNING in fm/cp_fm_elpa.F:521 :: Setting real_kernel for ELPA failed ***

     9 Broy./Diag. 0.40E+00    1.7     0.00000250      -322.3502735240  2.12E-05

 *** WARNING in fm/cp_fm_elpa.F:521 :: Setting real_kernel for ELPA failed ***

    10 Broy./Diag. 0.40E+00    1.8     0.00000256      -322.3502493678  2.42E-05

 *** WARNING in fm/cp_fm_elpa.F:521 :: Setting real_kernel for ELPA failed ***

    11 Broy./Diag. 0.40E+00    1.8     0.00000145      -322.3502404558  8.91E-06

 *** WARNING in fm/cp_fm_elpa.F:521 :: Setting real_kernel for ELPA failed ***

    12 Broy./Diag. 0.40E+00    1.8     0.00000096      -322.3502369770  3.48E-06

  *** SCF run converged in    12 steps ***


  Electronic density on regular grids:       -217.9999999989        0.0000000011
  Core density on regular grids:              219.9999999998       -0.0000000002
  Total charge density on r-space grids:        2.0000000010
  Total charge density g-space grids:           2.0000000010

  Overlap energy of the core charge distribution:               0.00001411653950
  Self energy of the core charge distribution:               -766.83425392616255
  Core Hamiltonian energy:                                    231.14643376288032
  Hartree energy:                                             308.92408450634605
  Exchange-correlation energy:                                -95.46927424514848
  Dispersion energy:                                           -0.11724119140904
  Electronic entropic energy:                                  -0.00000000000000
  Fermi energy:                                                -0.26473828752169

  Total energy:                                              -322.35023697695419

 ENERGY| Total FORCE_EVAL ( QS ) energy [hartree]           -322.350231410509991

 OPT| **************************************************************************
 OPT| Step number                                                             68
 OPT| Optimization method                                                   BFGS
 OPT| Total energy [hartree]                                     -322.3502314105
 OPT| Effective energy change [hartree]                            -0.0000087502
 OPT| Predicted energy change [hartree]                            -0.0000068463
 OPT| Scaling factor                                                0.1463567712
 OPT| Step size                                                     0.0437912215
 OPT| Trust radius                                                  0.3779452266
 OPT| Decrease in energy                                                     YES
 OPT| Used time [s]                                                       21.631
 OPT|
 OPT| Maximum step size                                             0.0437912215
 OPT| Convergence limit for maximum step size                       0.0030000000
 OPT| Maximum step size is converged                                          NO
 OPT|
 OPT| RMS step size                                                 0.0042294950
 OPT| Convergence limit for RMS step size                           0.0015000000
 OPT| RMS step size is converged                                              NO
 OPT|
 OPT| Maximum gradient                                              0.0005485593
 OPT| Convergence limit for maximum gradient                        0.0004500000
 OPT| Maximum gradient is converged                                           NO
 OPT|
 OPT| RMS gradient                                                  0.0000946291
 OPT| Convergence limit for RMS gradient                            0.0003000000
 OPT| RMS gradient is converged                                              YES
 OPT| **************************************************************************
 OPT| Estimated peak process memory after this step [MiB]                    716

 --------------------------
 OPTIMIZATION STEP:     69
 --------------------------

 *** WARNING in fm/cp_fm_elpa.F:521 :: Setting real_kernel for ELPA failed ***


 Number of electrons:                                                        218
 Number of occupied orbitals:                                                109
 Number of molecular orbitals:                                               146

 Number of orbital functions:                                                723
 Number of independent orbital functions:                                    723

 *** WARNING in fm/cp_fm_elpa.F:521 :: Setting real_kernel for ELPA failed ***


 Extrapolation method: ASPC


 SCF WAVEFUNCTION OPTIMIZATION

  Step     Update method      Time    Convergence         Total energy    Change
  ------------------------------------------------------------------------------

 *** WARNING in fm/cp_fm_elpa.F:521 :: Setting real_kernel for ELPA failed ***

     1 Broy./Diag. 0.40E+00    1.1     0.00136492      -322.3501967552 -3.22E+02

 *** WARNING in fm/cp_fm_elpa.F:521 :: Setting real_kernel for ELPA failed ***

     2 Broy./Diag. 0.40E+00    1.5     0.00023212      -322.3498925110  3.04E-04

 *** WARNING in fm/cp_fm_elpa.F:521 :: Setting real_kernel for ELPA failed ***

     3 Broy./Diag. 0.40E+00    1.6     0.00014261      -322.3502228271 -3.30E-04

 *** WARNING in fm/cp_fm_elpa.F:521 :: Setting real_kernel for ELPA failed ***

     4 Broy./Diag. 0.40E+00    1.6     0.00003012      -322.3505153811 -2.93E-04

 *** WARNING in fm/cp_fm_elpa.F:521 :: Setting real_kernel for ELPA failed ***

     5 Broy./Diag. 0.40E+00    1.6     0.00001217      -322.3503683940  1.47E-04

 *** WARNING in fm/cp_fm_elpa.F:521 :: Setting real_kernel for ELPA failed ***

     6 Broy./Diag. 0.40E+00    1.6     0.00000857      -322.3503523252  1.61E-05

 *** WARNING in fm/cp_fm_elpa.F:521 :: Setting real_kernel for ELPA failed ***

     7 Broy./Diag. 0.40E+00    1.7     0.00000597      -322.3502904876  6.18E-05

 *** WARNING in fm/cp_fm_elpa.F:521 :: Setting real_kernel for ELPA failed ***

     8 Broy./Diag. 0.40E+00    1.7     0.00000542      -322.3502742759  1.62E-05

 *** WARNING in fm/cp_fm_elpa.F:521 :: Setting real_kernel for ELPA failed ***

     9 Broy./Diag. 0.40E+00    1.7     0.00000243      -322.3502529667  2.13E-05

 *** WARNING in fm/cp_fm_elpa.F:521 :: Setting real_kernel for ELPA failed ***

    10 Broy./Diag. 0.40E+00    1.8     0.00000240      -322.3502455162  7.45E-06

 *** WARNING in fm/cp_fm_elpa.F:521 :: Setting real_kernel for ELPA failed ***

    11 Broy./Diag. 0.40E+00    1.8     0.00000125      -322.3502417434  3.77E-06

 *** WARNING in fm/cp_fm_elpa.F:521 :: Setting real_kernel for ELPA failed ***

    12 Broy./Diag. 0.40E+00    1.8     0.00000073      -322.3502410595  6.84E-07

  *** SCF run converged in    12 steps ***


  Electronic density on regular grids:       -217.9999999989        0.0000000011
  Core density on regular grids:              219.9999999998       -0.0000000002
  Total charge density on r-space grids:        2.0000000010
  Total charge density g-space grids:           2.0000000010

  Overlap energy of the core charge distribution:               0.00001412200525
  Self energy of the core charge distribution:               -766.83425392616255
  Core Hamiltonian energy:                                    231.14778533038361
  Hartree energy:                                             308.92303306855308
  Exchange-correlation energy:                                -95.46959126958718
  Dispersion energy:                                           -0.11722838471313
  Electronic entropic energy:                                  -0.00000000000000
  Fermi energy:                                                -0.26469860514290

  Total energy:                                              -322.35024105952090

 ENERGY| Total FORCE_EVAL ( QS ) energy [hartree]           -322.350238304765867

 OPT| **************************************************************************
 OPT| Step number                                                             69
 OPT| Optimization method                                                   BFGS
 OPT| Total energy [hartree]                                     -322.3502383048
 OPT| Effective energy change [hartree]                            -0.0000068943
 OPT| Predicted energy change [hartree]                            -0.0000051679
 OPT| Scaling factor                                                0.1463567712
 OPT| Step size                                                     0.0302739447
 OPT| Trust radius                                                  0.3779452266
 OPT| Decrease in energy                                                     YES
 OPT| Used time [s]                                                       21.603
 OPT|
 OPT| Maximum step size                                             0.0302739447
 OPT| Convergence limit for maximum step size                       0.0030000000
 OPT| Maximum step size is converged                                          NO
 OPT|
 OPT| RMS step size                                                 0.0033166690
 OPT| Convergence limit for RMS step size                           0.0015000000
 OPT| RMS step size is converged                                              NO
 OPT|
 OPT| Maximum gradient                                              0.0004238133
 OPT| Convergence limit for maximum gradient                        0.0004500000
 OPT| Maximum gradient is converged                                          YES
 OPT|
 OPT| RMS gradient                                                  0.0000902724
 OPT| Convergence limit for RMS gradient                            0.0003000000
 OPT| RMS gradient is converged                                              YES
 OPT| **************************************************************************
 OPT| Estimated peak process memory after this step [MiB]                    716

 --------------------------
 OPTIMIZATION STEP:     70
 --------------------------

 *** WARNING in fm/cp_fm_elpa.F:521 :: Setting real_kernel for ELPA failed ***


 Number of electrons:                                                        218
 Number of occupied orbitals:                                                109
 Number of molecular orbitals:                                               146

 Number of orbital functions:                                                723
 Number of independent orbital functions:                                    723

 *** WARNING in fm/cp_fm_elpa.F:521 :: Setting real_kernel for ELPA failed ***


 Extrapolation method: ASPC


 SCF WAVEFUNCTION OPTIMIZATION

  Step     Update method      Time    Convergence         Total energy    Change
  ------------------------------------------------------------------------------

 *** WARNING in fm/cp_fm_elpa.F:521 :: Setting real_kernel for ELPA failed ***

     1 Broy./Diag. 0.40E+00    1.1     0.00136910      -322.3501995956 -3.22E+02

 *** WARNING in fm/cp_fm_elpa.F:521 :: Setting real_kernel for ELPA failed ***

     2 Broy./Diag. 0.40E+00    1.5     0.00067402      -322.3489789669  1.22E-03

 *** WARNING in fm/cp_fm_elpa.F:521 :: Setting real_kernel for ELPA failed ***

     3 Broy./Diag. 0.40E+00    1.6     0.00016048      -322.3502284984 -1.25E-03

 *** WARNING in fm/cp_fm_elpa.F:521 :: Setting real_kernel for ELPA failed ***

     4 Broy./Diag. 0.40E+00    1.6     0.00007354      -322.3505109145 -2.82E-04

 *** WARNING in fm/cp_fm_elpa.F:521 :: Setting real_kernel for ELPA failed ***

     5 Broy./Diag. 0.40E+00    1.6     0.00002380      -322.3505329801 -2.21E-05

 *** WARNING in fm/cp_fm_elpa.F:521 :: Setting real_kernel for ELPA failed ***

     6 Broy./Diag. 0.40E+00    1.6     0.00001566      -322.3503742260  1.59E-04

 *** WARNING in fm/cp_fm_elpa.F:521 :: Setting real_kernel for ELPA failed ***

     7 Broy./Diag. 0.40E+00    1.7     0.00000904      -322.3503394218  3.48E-05

 *** WARNING in fm/cp_fm_elpa.F:521 :: Setting real_kernel for ELPA failed ***

     8 Broy./Diag. 0.40E+00    1.7     0.00000681      -322.3503058188  3.36E-05

 *** WARNING in fm/cp_fm_elpa.F:521 :: Setting real_kernel for ELPA failed ***

     9 Broy./Diag. 0.40E+00    1.7     0.00000275      -322.3502828597  2.30E-05

 *** WARNING in fm/cp_fm_elpa.F:521 :: Setting real_kernel for ELPA failed ***

    10 Broy./Diag. 0.40E+00    1.8     0.00000302      -322.3502517034  3.12E-05

 *** WARNING in fm/cp_fm_elpa.F:521 :: Setting real_kernel for ELPA failed ***

    11 Broy./Diag. 0.40E+00    1.8     0.00000131      -322.3502474908  4.21E-06

 *** WARNING in fm/cp_fm_elpa.F:521 :: Setting real_kernel for ELPA failed ***

    12 Broy./Diag. 0.40E+00    1.8     0.00000101      -322.3502486187 -1.13E-06

 *** WARNING in fm/cp_fm_elpa.F:521 :: Setting real_kernel for ELPA failed ***

    13 Broy./Diag. 0.40E+00    1.8     0.00000055      -322.3502486260 -7.34E-09

  *** SCF run converged in    13 steps ***


  Electronic density on regular grids:       -217.9999999989        0.0000000011
  Core density on regular grids:              219.9999999998       -0.0000000002
  Total charge density on r-space grids:        2.0000000010
  Total charge density g-space grids:           2.0000000010

  Overlap energy of the core charge distribution:               0.00001411564593
  Self energy of the core charge distribution:               -766.83425392616255
  Core Hamiltonian energy:                                    231.14640288678379
  Hartree energy:                                             308.92395858571649
  Exchange-correlation energy:                                -95.46915790897607
  Dispersion energy:                                           -0.11721237901638
  Electronic entropic energy:                                  -0.00000000000000
  Fermi energy:                                                -0.26464996142637

  Total energy:                                              -322.35024862600875

 ENERGY| Total FORCE_EVAL ( QS ) energy [hartree]           -322.350245468330002

 OPT| **************************************************************************
 OPT| Step number                                                             70
 OPT| Optimization method                                                   BFGS
 OPT| Total energy [hartree]                                     -322.3502454683
 OPT| Effective energy change [hartree]                            -0.0000071636
 OPT| Predicted energy change [hartree]                            -0.0000047875
 OPT| Scaling factor                                                0.1463567712
 OPT| Step size                                                     0.0395894337
 OPT| Trust radius                                                  0.3779452266
 OPT| Decrease in energy                                                     YES
 OPT| Used time [s]                                                       23.343
 OPT|
 OPT| Maximum step size                                             0.0395894337
 OPT| Convergence limit for maximum step size                       0.0030000000
 OPT| Maximum step size is converged                                          NO
 OPT|
 OPT| RMS step size                                                 0.0041140337
 OPT| Convergence limit for RMS step size                           0.0015000000
 OPT| RMS step size is converged                                              NO
 OPT|
 OPT| Maximum gradient                                              0.0004359877
 OPT| Convergence limit for maximum gradient                        0.0004500000
 OPT| Maximum gradient is converged                                          YES
 OPT|
 OPT| RMS gradient                                                  0.0000962267
 OPT| Convergence limit for RMS gradient                            0.0003000000
 OPT| RMS gradient is converged                                              YES
 OPT| **************************************************************************
 OPT| Estimated peak process memory after this step [MiB]                    716

 --------------------------
 OPTIMIZATION STEP:     71
 --------------------------

 *** WARNING in fm/cp_fm_elpa.F:521 :: Setting real_kernel for ELPA failed ***


 Number of electrons:                                                        218
 Number of occupied orbitals:                                                109
 Number of molecular orbitals:                                               146

 Number of orbital functions:                                                723
 Number of independent orbital functions:                                    723

 *** WARNING in fm/cp_fm_elpa.F:521 :: Setting real_kernel for ELPA failed ***


 Extrapolation method: ASPC


 SCF WAVEFUNCTION OPTIMIZATION

  Step     Update method      Time    Convergence         Total energy    Change
  ------------------------------------------------------------------------------

 *** WARNING in fm/cp_fm_elpa.F:521 :: Setting real_kernel for ELPA failed ***

     1 Broy./Diag. 0.40E+00    1.1     0.00217269      -322.3501623025 -3.22E+02

 *** WARNING in fm/cp_fm_elpa.F:521 :: Setting real_kernel for ELPA failed ***

     2 Broy./Diag. 0.40E+00    1.5     0.00107975      -322.3475264292  2.64E-03

 *** WARNING in fm/cp_fm_elpa.F:521 :: Setting real_kernel for ELPA failed ***

     3 Broy./Diag. 0.40E+00    1.6     0.00025228      -322.3500355802 -2.51E-03

 *** WARNING in fm/cp_fm_elpa.F:521 :: Setting real_kernel for ELPA failed ***

     4 Broy./Diag. 0.40E+00    1.6     0.00009232      -322.3504889537 -4.53E-04

 *** WARNING in fm/cp_fm_elpa.F:521 :: Setting real_kernel for ELPA failed ***

     5 Broy./Diag. 0.40E+00    1.6     0.00003483      -322.3506541809 -1.65E-04

 *** WARNING in fm/cp_fm_elpa.F:521 :: Setting real_kernel for ELPA failed ***

     6 Broy./Diag. 0.40E+00    1.6     0.00002123      -322.3504140405  2.40E-04

 *** WARNING in fm/cp_fm_elpa.F:521 :: Setting real_kernel for ELPA failed ***

     7 Broy./Diag. 0.40E+00    1.7     0.00001058      -322.3503657821  4.83E-05

 *** WARNING in fm/cp_fm_elpa.F:521 :: Setting real_kernel for ELPA failed ***

     8 Broy./Diag. 0.40E+00    1.7     0.00001102      -322.3503132986  5.25E-05

 *** WARNING in fm/cp_fm_elpa.F:521 :: Setting real_kernel for ELPA failed ***

     9 Broy./Diag. 0.40E+00    1.7     0.00000478      -322.3502884748  2.48E-05

 *** WARNING in fm/cp_fm_elpa.F:521 :: Setting real_kernel for ELPA failed ***

    10 Broy./Diag. 0.40E+00    1.8     0.00000508      -322.3502633384  2.51E-05

 *** WARNING in fm/cp_fm_elpa.F:521 :: Setting real_kernel for ELPA failed ***

    11 Broy./Diag. 0.40E+00    1.8     0.00000211      -322.3502597427  3.60E-06

 *** WARNING in fm/cp_fm_elpa.F:521 :: Setting real_kernel for ELPA failed ***

    12 Broy./Diag. 0.40E+00    1.8     0.00000166      -322.3502603463 -6.04E-07

 *** WARNING in fm/cp_fm_elpa.F:521 :: Setting real_kernel for ELPA failed ***

    13 Broy./Diag. 0.40E+00    1.8     0.00000084      -322.3502597263  6.20E-07

  *** SCF run converged in    13 steps ***


  Electronic density on regular grids:       -217.9999999989        0.0000000011
  Core density on regular grids:              219.9999999998       -0.0000000002
  Total charge density on r-space grids:        2.0000000010
  Total charge density g-space grids:           2.0000000010

  Overlap energy of the core charge distribution:               0.00001410314901
  Self energy of the core charge distribution:               -766.83425392616255
  Core Hamiltonian energy:                                    231.14411759538399
  Hartree energy:                                             308.92549655000545
  Exchange-correlation energy:                                -95.46844408190005
  Dispersion energy:                                           -0.11718996679061
  Electronic entropic energy:                                  -0.00000000000000
  Fermi energy:                                                -0.26455753805692

  Total energy:                                              -322.35025972631462

 ENERGY| Total FORCE_EVAL ( QS ) energy [hartree]           -322.350254949999169

 OPT| **************************************************************************
 OPT| Step number                                                             71
 OPT| Optimization method                                                   BFGS
 OPT| Total energy [hartree]                                     -322.3502549500
 OPT| Effective energy change [hartree]                            -0.0000094817
 OPT| Predicted energy change [hartree]                            -0.0000066506
 OPT| Scaling factor                                                0.1463567712
 OPT| Step size                                                     0.0656251794
 OPT| Trust radius                                                  0.3779452266
 OPT| Decrease in energy                                                     YES
 OPT| Used time [s]                                                       23.364
 OPT|
 OPT| Maximum step size                                             0.0656251794
 OPT| Convergence limit for maximum step size                       0.0030000000
 OPT| Maximum step size is converged                                          NO
 OPT|
 OPT| RMS step size                                                 0.0064548646
 OPT| Convergence limit for RMS step size                           0.0015000000
 OPT| RMS step size is converged                                              NO
 OPT|
 OPT| Maximum gradient                                              0.0004055005
 OPT| Convergence limit for maximum gradient                        0.0004500000
 OPT| Maximum gradient is converged                                          YES
 OPT|
 OPT| RMS gradient                                                  0.0001032994
 OPT| Convergence limit for RMS gradient                            0.0003000000
 OPT| RMS gradient is converged                                              YES
 OPT| **************************************************************************
 OPT| Estimated peak process memory after this step [MiB]                    716

 --------------------------
 OPTIMIZATION STEP:     72
 --------------------------

 *** WARNING in fm/cp_fm_elpa.F:521 :: Setting real_kernel for ELPA failed ***


 Number of electrons:                                                        218
 Number of occupied orbitals:                                                109
 Number of molecular orbitals:                                               146

 Number of orbital functions:                                                723
 Number of independent orbital functions:                                    723

 *** WARNING in fm/cp_fm_elpa.F:521 :: Setting real_kernel for ELPA failed ***


 Extrapolation method: ASPC


 SCF WAVEFUNCTION OPTIMIZATION

  Step     Update method      Time    Convergence         Total energy    Change
  ------------------------------------------------------------------------------

 *** WARNING in fm/cp_fm_elpa.F:521 :: Setting real_kernel for ELPA failed ***

     1 Broy./Diag. 0.40E+00    1.1     0.00239849      -322.3501517181 -3.22E+02

 *** WARNING in fm/cp_fm_elpa.F:521 :: Setting real_kernel for ELPA failed ***

     2 Broy./Diag. 0.40E+00    1.5     0.00126526      -322.3475845298  2.57E-03

 *** WARNING in fm/cp_fm_elpa.F:521 :: Setting real_kernel for ELPA failed ***

     3 Broy./Diag. 0.40E+00    1.6     0.00024262      -322.3501425776 -2.56E-03

 *** WARNING in fm/cp_fm_elpa.F:521 :: Setting real_kernel for ELPA failed ***

     4 Broy./Diag. 0.40E+00    1.6     0.00013089      -322.3504826632 -3.40E-04

 *** WARNING in fm/cp_fm_elpa.F:521 :: Setting real_kernel for ELPA failed ***

     5 Broy./Diag. 0.40E+00    1.6     0.00004250      -322.3507148602 -2.32E-04

 *** WARNING in fm/cp_fm_elpa.F:521 :: Setting real_kernel for ELPA failed ***

     6 Broy./Diag. 0.40E+00    1.6     0.00002077      -322.3504484642  2.66E-04

 *** WARNING in fm/cp_fm_elpa.F:521 :: Setting real_kernel for ELPA failed ***

     7 Broy./Diag. 0.40E+00    1.7     0.00001123      -322.3503905795  5.79E-05

 *** WARNING in fm/cp_fm_elpa.F:521 :: Setting real_kernel for ELPA failed ***

     8 Broy./Diag. 0.40E+00    1.7     0.00001070      -322.3503371373  5.34E-05

 *** WARNING in fm/cp_fm_elpa.F:521 :: Setting real_kernel for ELPA failed ***

     9 Broy./Diag. 0.40E+00    1.7     0.00000446      -322.3503093136  2.78E-05

 *** WARNING in fm/cp_fm_elpa.F:521 :: Setting real_kernel for ELPA failed ***

    10 Broy./Diag. 0.40E+00    1.8     0.00000463      -322.3502772594  3.21E-05

 *** WARNING in fm/cp_fm_elpa.F:521 :: Setting real_kernel for ELPA failed ***

    11 Broy./Diag. 0.40E+00    1.8     0.00000198      -322.3502721321  5.13E-06

 *** WARNING in fm/cp_fm_elpa.F:521 :: Setting real_kernel for ELPA failed ***

    12 Broy./Diag. 0.40E+00    1.8     0.00000168      -322.3502712838  8.48E-07

 *** WARNING in fm/cp_fm_elpa.F:521 :: Setting real_kernel for ELPA failed ***

    13 Broy./Diag. 0.40E+00    1.8     0.00000080      -322.3502713192 -3.54E-08

  *** SCF run converged in    13 steps ***


  Electronic density on regular grids:       -217.9999999989        0.0000000011
  Core density on regular grids:              219.9999999998       -0.0000000002
  Total charge density on r-space grids:        2.0000000009
  Total charge density g-space grids:           2.0000000009

  Overlap energy of the core charge distribution:               0.00001409256240
  Self energy of the core charge distribution:               -766.83425392616255
  Core Hamiltonian energy:                                    231.14238707596715
  Hartree energy:                                             308.92663005915210
  Exchange-correlation energy:                                -95.46787779957785
  Dispersion energy:                                           -0.11717082112330
  Electronic entropic energy:                                  -0.00000000000000
  Fermi energy:                                                -0.26445957061443

  Total energy:                                              -322.35027131918207

 ENERGY| Total FORCE_EVAL ( QS ) energy [hartree]           -322.350266865963306

 OPT| **************************************************************************
 OPT| Step number                                                             72
 OPT| Optimization method                                                   BFGS
 OPT| Total energy [hartree]                                     -322.3502668660
 OPT| Effective energy change [hartree]                            -0.0000119160
 OPT| Predicted energy change [hartree]                            -0.0000070871
 OPT| Scaling factor                                                0.1463567712
 OPT| Step size                                                     0.0693541707
 OPT| Trust radius                                                  0.3779452266
 OPT| Decrease in energy                                                     YES
 OPT| Used time [s]                                                       23.346
 OPT|
 OPT| Maximum step size                                             0.0693541707
 OPT| Convergence limit for maximum step size                       0.0030000000
 OPT| Maximum step size is converged                                          NO
 OPT|
 OPT| RMS step size                                                 0.0073685141
 OPT| Convergence limit for RMS step size                           0.0015000000
 OPT| RMS step size is converged                                              NO
 OPT|
 OPT| Maximum gradient                                              0.0004659638
 OPT| Convergence limit for maximum gradient                        0.0004500000
 OPT| Maximum gradient is converged                                           NO
 OPT|
 OPT| RMS gradient                                                  0.0001117651
 OPT| Convergence limit for RMS gradient                            0.0003000000
 OPT| RMS gradient is converged                                              YES
 OPT| **************************************************************************
 OPT| Estimated peak process memory after this step [MiB]                    716

 --------------------------
 OPTIMIZATION STEP:     73
 --------------------------

 *** WARNING in fm/cp_fm_elpa.F:521 :: Setting real_kernel for ELPA failed ***


  Step is scaled; Scaling factor =  0.77977

 Number of electrons:                                                        218
 Number of occupied orbitals:                                                109
 Number of molecular orbitals:                                               146

 Number of orbital functions:                                                723
 Number of independent orbital functions:                                    723

 *** WARNING in fm/cp_fm_elpa.F:521 :: Setting real_kernel for ELPA failed ***


 Extrapolation method: ASPC


 SCF WAVEFUNCTION OPTIMIZATION

  Step     Update method      Time    Convergence         Total energy    Change
  ------------------------------------------------------------------------------

 *** WARNING in fm/cp_fm_elpa.F:521 :: Setting real_kernel for ELPA failed ***

     1 Broy./Diag. 0.40E+00    1.1     0.01796875      -322.3466251433 -3.22E+02

 *** WARNING in fm/cp_fm_elpa.F:521 :: Setting real_kernel for ELPA failed ***

     2 Broy./Diag. 0.40E+00    1.5     0.00663822      -322.3413468313  5.28E-03

 *** WARNING in fm/cp_fm_elpa.F:521 :: Setting real_kernel for ELPA failed ***

     3 Broy./Diag. 0.40E+00    1.6     0.00149246      -322.3505626515 -9.22E-03

 *** WARNING in fm/cp_fm_elpa.F:521 :: Setting real_kernel for ELPA failed ***

     4 Broy./Diag. 0.40E+00    1.6     0.00068346      -322.3523016302 -1.74E-03

 *** WARNING in fm/cp_fm_elpa.F:521 :: Setting real_kernel for ELPA failed ***

     5 Broy./Diag. 0.40E+00    1.6     0.00026853      -322.3526271827 -3.26E-04

 *** WARNING in fm/cp_fm_elpa.F:521 :: Setting real_kernel for ELPA failed ***

     6 Broy./Diag. 0.40E+00    1.6     0.00016924      -322.3512103508  1.42E-03

 *** WARNING in fm/cp_fm_elpa.F:521 :: Setting real_kernel for ELPA failed ***

     7 Broy./Diag. 0.40E+00    1.7     0.00008044      -322.3508826624  3.28E-04

 *** WARNING in fm/cp_fm_elpa.F:521 :: Setting real_kernel for ELPA failed ***

     8 Broy./Diag. 0.40E+00    1.7     0.00006196      -322.3505690362  3.14E-04

 *** WARNING in fm/cp_fm_elpa.F:521 :: Setting real_kernel for ELPA failed ***

     9 Broy./Diag. 0.40E+00    1.7     0.00002630      -322.3504351734  1.34E-04

 *** WARNING in fm/cp_fm_elpa.F:521 :: Setting real_kernel for ELPA failed ***

    10 Broy./Diag. 0.40E+00    1.8     0.00002605      -322.3503044417  1.31E-04

 *** WARNING in fm/cp_fm_elpa.F:521 :: Setting real_kernel for ELPA failed ***

    11 Broy./Diag. 0.40E+00    1.8     0.00000909      -322.3503229365 -1.85E-05

 *** WARNING in fm/cp_fm_elpa.F:521 :: Setting real_kernel for ELPA failed ***

    12 Broy./Diag. 0.40E+00    1.8     0.00001192      -322.3503200541  2.88E-06

 *** WARNING in fm/cp_fm_elpa.F:521 :: Setting real_kernel for ELPA failed ***

    13 Broy./Diag. 0.40E+00    1.8     0.00000695      -322.3503206763 -6.22E-07

 *** WARNING in fm/cp_fm_elpa.F:521 :: Setting real_kernel for ELPA failed ***

    14 Broy./Diag. 0.40E+00    1.8     0.00000608      -322.3503039617  1.67E-05

 *** WARNING in fm/cp_fm_elpa.F:521 :: Setting real_kernel for ELPA failed ***

    15 Broy./Diag. 0.40E+00    1.8     0.00000327      -322.3503079158 -3.95E-06

 *** WARNING in fm/cp_fm_elpa.F:521 :: Setting real_kernel for ELPA failed ***

    16 Broy./Diag. 0.40E+00    1.8     0.00000276      -322.3503063164  1.60E-06

 *** WARNING in fm/cp_fm_elpa.F:521 :: Setting real_kernel for ELPA failed ***

    17 Broy./Diag. 0.40E+00    1.8     0.00000160      -322.3503009275  5.39E-06

 *** WARNING in fm/cp_fm_elpa.F:521 :: Setting real_kernel for ELPA failed ***

    18 Broy./Diag. 0.40E+00    1.8     0.00000101      -322.3502930350  7.89E-06

 *** WARNING in fm/cp_fm_elpa.F:521 :: Setting real_kernel for ELPA failed ***

    19 Broy./Diag. 0.40E+00    1.8     0.00000073      -322.3502897617  3.27E-06

  *** SCF run converged in    19 steps ***


  Electronic density on regular grids:       -217.9999999989        0.0000000011
  Core density on regular grids:              219.9999999998       -0.0000000002
  Total charge density on r-space grids:        2.0000000009
  Total charge density g-space grids:           2.0000000009

  Overlap energy of the core charge distribution:               0.00001403071005
  Self energy of the core charge distribution:               -766.83425392616255
  Core Hamiltonian energy:                                    231.12651460282513
  Hartree energy:                                             308.93749304617052
  Exchange-correlation energy:                                -95.46295079415211
  Dispersion energy:                                           -0.11710672104296
  Electronic entropic energy:                                  -0.00000000000000
  Fermi energy:                                                -0.26371297509042

  Total energy:                                              -322.35028976165194

 ENERGY| Total FORCE_EVAL ( QS ) energy [hartree]           -322.350282520346354

 OPT| **************************************************************************
 OPT| Step number                                                             73
 OPT| Optimization method                                                   BFGS
 OPT| Total energy [hartree]                                     -322.3502825203
 OPT| Effective energy change [hartree]                            -0.0000156544
 OPT| Predicted energy change [hartree]                            -0.0000341005
 OPT| Scaling factor                                                0.7797712553
 OPT| Step size                                                     0.3779452266
 OPT| Trust radius                                                  0.3779452266
 OPT| Decrease in energy                                                     YES
 OPT| Used time [s]                                                       33.940
 OPT|
 OPT| Maximum step size                                             0.3779452266
 OPT| Convergence limit for maximum step size                       0.0030000000
 OPT| Maximum step size is converged                                          NO
 OPT|
 OPT| RMS step size                                                 0.0398346616
 OPT| Convergence limit for RMS step size                           0.0015000000
 OPT| RMS step size is converged                                              NO
 OPT|
 OPT| Maximum gradient                                              0.0014349496
 OPT| Convergence limit for maximum gradient                        0.0004500000
 OPT| Maximum gradient is converged                                           NO
 OPT|
 OPT| RMS gradient                                                  0.0003086407
 OPT| Convergence limit for RMS gradient                            0.0003000000
 OPT| RMS gradient is converged                                               NO
 OPT| **************************************************************************
 OPT| Estimated peak process memory after this step [MiB]                    716

 --------------------------
 OPTIMIZATION STEP:     74
 --------------------------

 *** WARNING in fm/cp_fm_elpa.F:521 :: Setting real_kernel for ELPA failed ***


 Number of electrons:                                                        218
 Number of occupied orbitals:                                                109
 Number of molecular orbitals:                                               146

 Number of orbital functions:                                                723
 Number of independent orbital functions:                                    723

 *** WARNING in fm/cp_fm_elpa.F:521 :: Setting real_kernel for ELPA failed ***


 Extrapolation method: ASPC


 SCF WAVEFUNCTION OPTIMIZATION

  Step     Update method      Time    Convergence         Total energy    Change
  ------------------------------------------------------------------------------

 *** WARNING in fm/cp_fm_elpa.F:521 :: Setting real_kernel for ELPA failed ***

     1 Broy./Diag. 0.40E+00    1.1     0.02669927      -322.3460555113 -3.22E+02

 *** WARNING in fm/cp_fm_elpa.F:521 :: Setting real_kernel for ELPA failed ***

     2 Broy./Diag. 0.40E+00    1.5     0.00342407      -322.3424173239  3.64E-03

 *** WARNING in fm/cp_fm_elpa.F:521 :: Setting real_kernel for ELPA failed ***

     3 Broy./Diag. 0.40E+00    1.6     0.00098807      -322.3477439980 -5.33E-03

 *** WARNING in fm/cp_fm_elpa.F:521 :: Setting real_kernel for ELPA failed ***

     4 Broy./Diag. 0.40E+00    1.6     0.00038004      -322.3474970971  2.47E-04

 *** WARNING in fm/cp_fm_elpa.F:521 :: Setting real_kernel for ELPA failed ***

     5 Broy./Diag. 0.40E+00    1.6     0.00032911      -322.3487196563 -1.22E-03

 *** WARNING in fm/cp_fm_elpa.F:521 :: Setting real_kernel for ELPA failed ***

     6 Broy./Diag. 0.40E+00    1.6     0.00009874      -322.3487532901 -3.36E-05

 *** WARNING in fm/cp_fm_elpa.F:521 :: Setting real_kernel for ELPA failed ***

     7 Broy./Diag. 0.40E+00    1.6     0.00010632      -322.3495901711 -8.37E-04

 *** WARNING in fm/cp_fm_elpa.F:521 :: Setting real_kernel for ELPA failed ***

     8 Broy./Diag. 0.40E+00    1.6     0.00004899      -322.3499969655 -4.07E-04

 *** WARNING in fm/cp_fm_elpa.F:521 :: Setting real_kernel for ELPA failed ***

     9 Broy./Diag. 0.40E+00    1.6     0.00003760      -322.3502017933 -2.05E-04

 *** WARNING in fm/cp_fm_elpa.F:521 :: Setting real_kernel for ELPA failed ***

    10 Broy./Diag. 0.40E+00    1.7     0.00003363      -322.3502330111 -3.12E-05

 *** WARNING in fm/cp_fm_elpa.F:521 :: Setting real_kernel for ELPA failed ***

    11 Broy./Diag. 0.40E+00    1.7     0.00001632      -322.3503155552 -8.25E-05

 *** WARNING in fm/cp_fm_elpa.F:521 :: Setting real_kernel for ELPA failed ***

    12 Broy./Diag. 0.40E+00    1.7     0.00001389      -322.3503090343  6.52E-06

 *** WARNING in fm/cp_fm_elpa.F:521 :: Setting real_kernel for ELPA failed ***

    13 Broy./Diag. 0.40E+00    1.7     0.00000762      -322.3502975162  1.15E-05

 *** WARNING in fm/cp_fm_elpa.F:521 :: Setting real_kernel for ELPA failed ***

    14 Broy./Diag. 0.40E+00    1.7     0.00000368      -322.3502807156  1.68E-05

 *** WARNING in fm/cp_fm_elpa.F:521 :: Setting real_kernel for ELPA failed ***

    15 Broy./Diag. 0.40E+00    1.7     0.00000201      -322.3502838687 -3.15E-06

 *** WARNING in fm/cp_fm_elpa.F:521 :: Setting real_kernel for ELPA failed ***

    16 Broy./Diag. 0.40E+00    1.7     0.00000096      -322.3502899915 -6.12E-06

  *** SCF run converged in    16 steps ***


  Electronic density on regular grids:       -217.9999999989        0.0000000011
  Core density on regular grids:              219.9999999998       -0.0000000002
  Total charge density on r-space grids:        2.0000000009
  Total charge density g-space grids:           2.0000000009

  Overlap energy of the core charge distribution:               0.00001408104043
  Self energy of the core charge distribution:               -766.83425392616255
  Core Hamiltonian energy:                                    231.13852494848703
  Hartree energy:                                             308.92910865368174
  Exchange-correlation energy:                                -95.46655680165031
  Dispersion energy:                                           -0.11712694687648
  Electronic entropic energy:                                  -0.00000000000000
  Fermi energy:                                                -0.26405053275420

  Total energy:                                              -322.35028999148017

 ENERGY| Total FORCE_EVAL ( QS ) energy [hartree]           -322.350310993476000

 OPT| **************************************************************************
 OPT| Step number                                                             74
 OPT| Optimization method                                                   BFGS
 OPT| Total energy [hartree]                                     -322.3503109935
 OPT| Effective energy change [hartree]                            -0.0000284731
 OPT| Predicted energy change [hartree]                            -0.0000254763
 OPT| Scaling factor                                                0.7797712553
 OPT| Step size                                                     0.1436029750
 OPT| Trust radius                                                  0.3779452266
 OPT| Decrease in energy                                                     YES
 OPT| Used time [s]                                                       27.740
 OPT|
 OPT| Maximum step size                                             0.1436029750
 OPT| Convergence limit for maximum step size                       0.0030000000
 OPT| Maximum step size is converged                                          NO
 OPT|
 OPT| RMS step size                                                 0.0149761937
 OPT| Convergence limit for RMS step size                           0.0015000000
 OPT| RMS step size is converged                                              NO
 OPT|
 OPT| Maximum gradient                                              0.0009089629
 OPT| Convergence limit for maximum gradient                        0.0004500000
 OPT| Maximum gradient is converged                                           NO
 OPT|
 OPT| RMS gradient                                                  0.0001941444
 OPT| Convergence limit for RMS gradient                            0.0003000000
 OPT| RMS gradient is converged                                              YES
 OPT| **************************************************************************
 OPT| Estimated peak process memory after this step [MiB]                    716

 --------------------------
 OPTIMIZATION STEP:     75
 --------------------------

 *** WARNING in fm/cp_fm_elpa.F:521 :: Setting real_kernel for ELPA failed ***


 Number of electrons:                                                        218
 Number of occupied orbitals:                                                109
 Number of molecular orbitals:                                               146

 Number of orbital functions:                                                723
 Number of independent orbital functions:                                    723

 *** WARNING in fm/cp_fm_elpa.F:521 :: Setting real_kernel for ELPA failed ***


 Extrapolation method: ASPC


 SCF WAVEFUNCTION OPTIMIZATION

  Step     Update method      Time    Convergence         Total energy    Change
  ------------------------------------------------------------------------------

 *** WARNING in fm/cp_fm_elpa.F:521 :: Setting real_kernel for ELPA failed ***

     1 Broy./Diag. 0.40E+00    1.1     0.02802001      -322.3459862016 -3.22E+02

 *** WARNING in fm/cp_fm_elpa.F:521 :: Setting real_kernel for ELPA failed ***

     2 Broy./Diag. 0.40E+00    1.5     0.00213446      -322.3682204719 -2.22E-02

 *** WARNING in fm/cp_fm_elpa.F:521 :: Setting real_kernel for ELPA failed ***

     3 Broy./Diag. 0.40E+00    1.5     0.00124864      -322.3544803097  1.37E-02

 *** WARNING in fm/cp_fm_elpa.F:521 :: Setting real_kernel for ELPA failed ***

     4 Broy./Diag. 0.40E+00    1.5     0.00053899      -322.3524438435  2.04E-03

 *** WARNING in fm/cp_fm_elpa.F:521 :: Setting real_kernel for ELPA failed ***

     5 Broy./Diag. 0.40E+00    1.5     0.00031885      -322.3509454195  1.50E-03

 *** WARNING in fm/cp_fm_elpa.F:521 :: Setting real_kernel for ELPA failed ***

     6 Broy./Diag. 0.40E+00    1.5     0.00007452      -322.3515635666 -6.18E-04

 *** WARNING in fm/cp_fm_elpa.F:521 :: Setting real_kernel for ELPA failed ***

     7 Broy./Diag. 0.40E+00    1.6     0.00008349      -322.3510150691  5.48E-04

 *** WARNING in fm/cp_fm_elpa.F:521 :: Setting real_kernel for ELPA failed ***

     8 Broy./Diag. 0.40E+00    1.6     0.00004978      -322.3506131861  4.02E-04

 *** WARNING in fm/cp_fm_elpa.F:521 :: Setting real_kernel for ELPA failed ***

     9 Broy./Diag. 0.40E+00    1.6     0.00003380      -322.3504277555  1.85E-04

 *** WARNING in fm/cp_fm_elpa.F:521 :: Setting real_kernel for ELPA failed ***

    10 Broy./Diag. 0.40E+00    1.7     0.00002285      -322.3504321714 -4.42E-06

 *** WARNING in fm/cp_fm_elpa.F:521 :: Setting real_kernel for ELPA failed ***

    11 Broy./Diag. 0.40E+00    1.7     0.00001306      -322.3503625777  6.96E-05

 *** WARNING in fm/cp_fm_elpa.F:521 :: Setting real_kernel for ELPA failed ***

    12 Broy./Diag. 0.40E+00    1.7     0.00000874      -322.3503567422  5.84E-06

 *** WARNING in fm/cp_fm_elpa.F:521 :: Setting real_kernel for ELPA failed ***

    13 Broy./Diag. 0.40E+00    1.7     0.00000544      -322.3503717678 -1.50E-05

 *** WARNING in fm/cp_fm_elpa.F:521 :: Setting real_kernel for ELPA failed ***

    14 Broy./Diag. 0.40E+00    1.7     0.00000389      -322.3503923603 -2.06E-05

 *** WARNING in fm/cp_fm_elpa.F:521 :: Setting real_kernel for ELPA failed ***

    15 Broy./Diag. 0.40E+00    1.7     0.00000252      -322.3503871195  5.24E-06

 *** WARNING in fm/cp_fm_elpa.F:521 :: Setting real_kernel for ELPA failed ***

    16 Broy./Diag. 0.40E+00    1.7     0.00000118      -322.3503778435  9.28E-06

 *** WARNING in fm/cp_fm_elpa.F:521 :: Setting real_kernel for ELPA failed ***

    17 Broy./Diag. 0.40E+00    1.7     0.00000072      -322.3503712069  6.64E-06

  *** SCF run converged in    17 steps ***


  Electronic density on regular grids:       -217.9999999989        0.0000000011
  Core density on regular grids:              219.9999999998       -0.0000000002
  Total charge density on r-space grids:        2.0000000009
  Total charge density g-space grids:           2.0000000009

  Overlap energy of the core charge distribution:               0.00001410524798
  Self energy of the core charge distribution:               -766.83425392616255
  Core Hamiltonian energy:                                    231.14177742376123
  Hartree energy:                                             308.92667848282542
  Exchange-correlation energy:                                -95.46745910854169
  Dispersion energy:                                           -0.11712818403630
  Electronic entropic energy:                                  -0.00000000000000
  Fermi energy:                                                -0.26395819878119

  Total energy:                                              -322.35037120690589

 ENERGY| Total FORCE_EVAL ( QS ) energy [hartree]           -322.350354751842872

 OPT| **************************************************************************
 OPT| Step number                                                             75
 OPT| Optimization method                                                   BFGS
 OPT| Total energy [hartree]                                     -322.3503547518
 OPT| Effective energy change [hartree]                            -0.0000437584
 OPT| Predicted energy change [hartree]                            -0.0000251791
 OPT| Scaling factor                                                0.7797712553
 OPT| Step size                                                     0.0655936958
 OPT| Trust radius                                                  0.3779452266
 OPT| Decrease in energy                                                     YES
 OPT| Used time [s]                                                       28.801
 OPT|
 OPT| Maximum step size                                             0.0655936958
 OPT| Convergence limit for maximum step size                       0.0030000000
 OPT| Maximum step size is converged                                          NO
 OPT|
 OPT| RMS step size                                                 0.0087282658
 OPT| Convergence limit for RMS step size                           0.0015000000
 OPT| RMS step size is converged                                              NO
 OPT|
 OPT| Maximum gradient                                              0.0005902521
 OPT| Convergence limit for maximum gradient                        0.0004500000
 OPT| Maximum gradient is converged                                           NO
 OPT|
 OPT| RMS gradient                                                  0.0001580677
 OPT| Convergence limit for RMS gradient                            0.0003000000
 OPT| RMS gradient is converged                                              YES
 OPT| **************************************************************************
 OPT| Estimated peak process memory after this step [MiB]                    716

 --------------------------
 OPTIMIZATION STEP:     76
 --------------------------

 *** WARNING in fm/cp_fm_elpa.F:521 :: Setting real_kernel for ELPA failed ***


 Number of electrons:                                                        218
 Number of occupied orbitals:                                                109
 Number of molecular orbitals:                                               146

 Number of orbital functions:                                                723
 Number of independent orbital functions:                                    723

 *** WARNING in fm/cp_fm_elpa.F:521 :: Setting real_kernel for ELPA failed ***


 Extrapolation method: ASPC


 SCF WAVEFUNCTION OPTIMIZATION

  Step     Update method      Time    Convergence         Total energy    Change
  ------------------------------------------------------------------------------

 *** WARNING in fm/cp_fm_elpa.F:521 :: Setting real_kernel for ELPA failed ***

     1 Broy./Diag. 0.40E+00    1.1     0.01283024      -322.3475341578 -3.22E+02

 *** WARNING in fm/cp_fm_elpa.F:521 :: Setting real_kernel for ELPA failed ***

     2 Broy./Diag. 0.40E+00    1.5     0.00373590      -322.3329152397  1.46E-02

 *** WARNING in fm/cp_fm_elpa.F:521 :: Setting real_kernel for ELPA failed ***

     3 Broy./Diag. 0.40E+00    1.5     0.00146664      -322.3480879453 -1.52E-02

 *** WARNING in fm/cp_fm_elpa.F:521 :: Setting real_kernel for ELPA failed ***

     4 Broy./Diag. 0.40E+00    1.5     0.00092859      -322.3499296484 -1.84E-03

 *** WARNING in fm/cp_fm_elpa.F:521 :: Setting real_kernel for ELPA failed ***

     5 Broy./Diag. 0.40E+00    1.5     0.00019157      -322.3516607053 -1.73E-03

 *** WARNING in fm/cp_fm_elpa.F:521 :: Setting real_kernel for ELPA failed ***

     6 Broy./Diag. 0.40E+00    1.5     0.00005616      -322.3505277471  1.13E-03

 *** WARNING in fm/cp_fm_elpa.F:521 :: Setting real_kernel for ELPA failed ***

     7 Broy./Diag. 0.40E+00    1.6     0.00002859      -322.3504891611  3.86E-05

 *** WARNING in fm/cp_fm_elpa.F:521 :: Setting real_kernel for ELPA failed ***

     8 Broy./Diag. 0.40E+00    1.6     0.00003457      -322.3504209545  6.82E-05

 *** WARNING in fm/cp_fm_elpa.F:521 :: Setting real_kernel for ELPA failed ***

     9 Broy./Diag. 0.40E+00    1.6     0.00001614      -322.3504339609 -1.30E-05

 *** WARNING in fm/cp_fm_elpa.F:521 :: Setting real_kernel for ELPA failed ***

    10 Broy./Diag. 0.40E+00    1.7     0.00001525      -322.3503723129  6.16E-05

 *** WARNING in fm/cp_fm_elpa.F:521 :: Setting real_kernel for ELPA failed ***

    11 Broy./Diag. 0.40E+00    1.7     0.00000776      -322.3503804765 -8.16E-06

 *** WARNING in fm/cp_fm_elpa.F:521 :: Setting real_kernel for ELPA failed ***

    12 Broy./Diag. 0.40E+00    1.7     0.00000686      -322.3503935478 -1.31E-05

 *** WARNING in fm/cp_fm_elpa.F:521 :: Setting real_kernel for ELPA failed ***

    13 Broy./Diag. 0.40E+00    1.7     0.00000269      -322.3503819911  1.16E-05

 *** WARNING in fm/cp_fm_elpa.F:521 :: Setting real_kernel for ELPA failed ***

    14 Broy./Diag. 0.40E+00    1.7     0.00000327      -322.3503691249  1.29E-05

 *** WARNING in fm/cp_fm_elpa.F:521 :: Setting real_kernel for ELPA failed ***

    15 Broy./Diag. 0.40E+00    1.7     0.00000244      -322.3503714894 -2.36E-06

 *** WARNING in fm/cp_fm_elpa.F:521 :: Setting real_kernel for ELPA failed ***

    16 Broy./Diag. 0.40E+00    1.7     0.00000195      -322.3503738263 -2.34E-06

 *** WARNING in fm/cp_fm_elpa.F:521 :: Setting real_kernel for ELPA failed ***

    17 Broy./Diag. 0.40E+00    1.7     0.00000111      -322.3503731733  6.53E-07

 *** WARNING in fm/cp_fm_elpa.F:521 :: Setting real_kernel for ELPA failed ***

    18 Broy./Diag. 0.40E+00    1.7     0.00000071      -322.3503696454  3.53E-06

  *** SCF run converged in    18 steps ***


  Electronic density on regular grids:       -217.9999999989        0.0000000011
  Core density on regular grids:              219.9999999998       -0.0000000002
  Total charge density on r-space grids:        2.0000000009
  Total charge density g-space grids:           2.0000000009

  Overlap energy of the core charge distribution:               0.00001413537522
  Self energy of the core charge distribution:               -766.83425392616255
  Core Hamiltonian energy:                                    231.13909947650336
  Hartree energy:                                             308.92825567237105
  Exchange-correlation energy:                                -95.46634055228927
  Dispersion energy:                                           -0.11714445114950
  Electronic entropic energy:                                  -0.00000000000000
  Fermi energy:                                                -0.26342868563755

  Total energy:                                              -322.35036964535169

 ENERGY| Total FORCE_EVAL ( QS ) energy [hartree]           -322.350369043998683

 OPT| **************************************************************************
 OPT| Step number                                                             76
 OPT| Optimization method                                                   BFGS
 OPT| Total energy [hartree]                                     -322.3503690440
 OPT| Effective energy change [hartree]                            -0.0000142922
 OPT| Predicted energy change [hartree]                            -0.0000728932
 OPT| Scaling factor                                                0.7797712553
 OPT| Step size                                                     0.2807113001
 OPT| Trust radius                                                  0.3779452266
 OPT| Decrease in energy                                                     YES
 OPT| Used time [s]                                                       30.527
 OPT|
 OPT| Maximum step size                                             0.2807113001
 OPT| Convergence limit for maximum step size                       0.0030000000
 OPT| Maximum step size is converged                                          NO
 OPT|
 OPT| RMS step size                                                 0.0352377796
 OPT| Convergence limit for RMS step size                           0.0015000000
 OPT| RMS step size is converged                                              NO
 OPT|
 OPT| Maximum gradient                                              0.0027520568
 OPT| Convergence limit for maximum gradient                        0.0004500000
 OPT| Maximum gradient is converged                                           NO
 OPT|
 OPT| RMS gradient                                                  0.0002748731
 OPT| Convergence limit for RMS gradient                            0.0003000000
 OPT| RMS gradient is converged                                              YES
 OPT| **************************************************************************
 OPT| Estimated peak process memory after this step [MiB]                    716

 --------------------------
 OPTIMIZATION STEP:     77
 --------------------------

 *** WARNING in fm/cp_fm_elpa.F:521 :: Setting real_kernel for ELPA failed ***


 Number of electrons:                                                        218
 Number of occupied orbitals:                                                109
 Number of molecular orbitals:                                               146

 Number of orbital functions:                                                723
 Number of independent orbital functions:                                    723

 *** WARNING in fm/cp_fm_elpa.F:521 :: Setting real_kernel for ELPA failed ***


 Extrapolation method: ASPC


 SCF WAVEFUNCTION OPTIMIZATION

  Step     Update method      Time    Convergence         Total energy    Change
  ------------------------------------------------------------------------------

 *** WARNING in fm/cp_fm_elpa.F:521 :: Setting real_kernel for ELPA failed ***

     1 Broy./Diag. 0.40E+00    1.1     0.02091331      -322.3471048116 -3.22E+02

 *** WARNING in fm/cp_fm_elpa.F:521 :: Setting real_kernel for ELPA failed ***

     2 Broy./Diag. 0.40E+00    1.5     0.00233885      -322.3599233132 -1.28E-02

 *** WARNING in fm/cp_fm_elpa.F:521 :: Setting real_kernel for ELPA failed ***

     3 Broy./Diag. 0.40E+00    1.5     0.00084457      -322.3506579854  9.27E-03

 *** WARNING in fm/cp_fm_elpa.F:521 :: Setting real_kernel for ELPA failed ***

     4 Broy./Diag. 0.40E+00    1.5     0.00070849      -322.3493915206  1.27E-03

 *** WARNING in fm/cp_fm_elpa.F:521 :: Setting real_kernel for ELPA failed ***

     5 Broy./Diag. 0.40E+00    1.5     0.00017246      -322.3487931351  5.98E-04

 *** WARNING in fm/cp_fm_elpa.F:521 :: Setting real_kernel for ELPA failed ***

     6 Broy./Diag. 0.40E+00    1.5     0.00012637      -322.3497019748 -9.09E-04

 *** WARNING in fm/cp_fm_elpa.F:521 :: Setting real_kernel for ELPA failed ***

     7 Broy./Diag. 0.40E+00    1.6     0.00006953      -322.3500261135 -3.24E-04

 *** WARNING in fm/cp_fm_elpa.F:521 :: Setting real_kernel for ELPA failed ***

     8 Broy./Diag. 0.40E+00    1.6     0.00004052      -322.3503042754 -2.78E-04

 *** WARNING in fm/cp_fm_elpa.F:521 :: Setting real_kernel for ELPA failed ***

     9 Broy./Diag. 0.40E+00    1.6     0.00003361      -322.3503691348 -6.49E-05

 *** WARNING in fm/cp_fm_elpa.F:521 :: Setting real_kernel for ELPA failed ***

    10 Broy./Diag. 0.40E+00    1.7     0.00003077      -322.3503954083 -2.63E-05

 *** WARNING in fm/cp_fm_elpa.F:521 :: Setting real_kernel for ELPA failed ***

    11 Broy./Diag. 0.40E+00    1.7     0.00001371      -322.3503894401  5.97E-06

 *** WARNING in fm/cp_fm_elpa.F:521 :: Setting real_kernel for ELPA failed ***

    12 Broy./Diag. 0.40E+00    1.7     0.00001003      -322.3504159596 -2.65E-05

 *** WARNING in fm/cp_fm_elpa.F:521 :: Setting real_kernel for ELPA failed ***

    13 Broy./Diag. 0.40E+00    1.7     0.00000516      -322.3504062722  9.69E-06

 *** WARNING in fm/cp_fm_elpa.F:521 :: Setting real_kernel for ELPA failed ***

    14 Broy./Diag. 0.40E+00    1.7     0.00000315      -322.3503995563  6.72E-06

 *** WARNING in fm/cp_fm_elpa.F:521 :: Setting real_kernel for ELPA failed ***

    15 Broy./Diag. 0.40E+00    1.7     0.00000206      -322.3503894288  1.01E-05

 *** WARNING in fm/cp_fm_elpa.F:521 :: Setting real_kernel for ELPA failed ***

    16 Broy./Diag. 0.40E+00    1.7     0.00000108      -322.3503977743 -8.35E-06

 *** WARNING in fm/cp_fm_elpa.F:521 :: Setting real_kernel for ELPA failed ***

    17 Broy./Diag. 0.40E+00    1.7     0.00000101      -322.3504028094 -5.04E-06

 *** WARNING in fm/cp_fm_elpa.F:521 :: Setting real_kernel for ELPA failed ***

    18 Broy./Diag. 0.40E+00    1.7     0.00000072      -322.3504079560 -5.15E-06

  *** SCF run converged in    18 steps ***


  Electronic density on regular grids:       -217.9999999989        0.0000000011
  Core density on regular grids:              219.9999999998       -0.0000000002
  Total charge density on r-space grids:        2.0000000009
  Total charge density g-space grids:           2.0000000009

  Overlap energy of the core charge distribution:               0.00001415643746
  Self energy of the core charge distribution:               -766.83425392616255
  Core Hamiltonian energy:                                    231.14787353197050
  Hartree energy:                                             308.92218220828130
  Exchange-correlation energy:                                -95.46907864049342
  Dispersion energy:                                           -0.11714528599731
  Electronic entropic energy:                                  -0.00000000000000
  Fermi energy:                                                -0.26381260206970

  Total energy:                                              -322.35040795596399

 ENERGY| Total FORCE_EVAL ( QS ) energy [hartree]           -322.350417350798580

 OPT| **************************************************************************
 OPT| Step number                                                             77
 OPT| Optimization method                                                   BFGS
 OPT| Total energy [hartree]                                     -322.3504173508
 OPT| Effective energy change [hartree]                            -0.0000483068
 OPT| Predicted energy change [hartree]                            -0.0000420008
 OPT| Scaling factor                                                0.7797712553
 OPT| Step size                                                     0.1641970374
 OPT| Trust radius                                                  0.3779452266
 OPT| Decrease in energy                                                     YES
 OPT| Used time [s]                                                       30.571
 OPT|
 OPT| Maximum step size                                             0.1641970374
 OPT| Convergence limit for maximum step size                       0.0030000000
 OPT| Maximum step size is converged                                          NO
 OPT|
 OPT| RMS step size                                                 0.0194769607
 OPT| Convergence limit for RMS step size                           0.0015000000
 OPT| RMS step size is converged                                              NO
 OPT|
 OPT| Maximum gradient                                              0.0008002617
 OPT| Convergence limit for maximum gradient                        0.0004500000
 OPT| Maximum gradient is converged                                           NO
 OPT|
 OPT| RMS gradient                                                  0.0001568287
 OPT| Convergence limit for RMS gradient                            0.0003000000
 OPT| RMS gradient is converged                                              YES
 OPT| **************************************************************************
 OPT| Estimated peak process memory after this step [MiB]                    716

 --------------------------
 OPTIMIZATION STEP:     78
 --------------------------

 *** WARNING in fm/cp_fm_elpa.F:521 :: Setting real_kernel for ELPA failed ***


 Number of electrons:                                                        218
 Number of occupied orbitals:                                                109
 Number of molecular orbitals:                                               146

 Number of orbital functions:                                                723
 Number of independent orbital functions:                                    723

 *** WARNING in fm/cp_fm_elpa.F:521 :: Setting real_kernel for ELPA failed ***


 Extrapolation method: ASPC


 SCF WAVEFUNCTION OPTIMIZATION

  Step     Update method      Time    Convergence         Total energy    Change
  ------------------------------------------------------------------------------

 *** WARNING in fm/cp_fm_elpa.F:521 :: Setting real_kernel for ELPA failed ***

     1 Broy./Diag. 0.40E+00    1.1     0.02494741      -322.3467560535 -3.22E+02

 *** WARNING in fm/cp_fm_elpa.F:521 :: Setting real_kernel for ELPA failed ***

     2 Broy./Diag. 0.40E+00    1.5     0.00159594      -322.3529053821 -6.15E-03

 *** WARNING in fm/cp_fm_elpa.F:521 :: Setting real_kernel for ELPA failed ***

     3 Broy./Diag. 0.40E+00    1.5     0.00078853      -322.3517920509  1.11E-03

 *** WARNING in fm/cp_fm_elpa.F:521 :: Setting real_kernel for ELPA failed ***

     4 Broy./Diag. 0.40E+00    1.5     0.00052107      -322.3507993038  9.93E-04

 *** WARNING in fm/cp_fm_elpa.F:521 :: Setting real_kernel for ELPA failed ***

     5 Broy./Diag. 0.40E+00    1.5     0.00017361      -322.3508449483 -4.56E-05

 *** WARNING in fm/cp_fm_elpa.F:521 :: Setting real_kernel for ELPA failed ***

     6 Broy./Diag. 0.40E+00    1.5     0.00006607      -322.3509855900 -1.41E-04

 *** WARNING in fm/cp_fm_elpa.F:521 :: Setting real_kernel for ELPA failed ***

     7 Broy./Diag. 0.40E+00    1.6     0.00005164      -322.3506822760  3.03E-04

 *** WARNING in fm/cp_fm_elpa.F:521 :: Setting real_kernel for ELPA failed ***

     8 Broy./Diag. 0.40E+00    1.6     0.00003115      -322.3504624678  2.20E-04

 *** WARNING in fm/cp_fm_elpa.F:521 :: Setting real_kernel for ELPA failed ***

     9 Broy./Diag. 0.40E+00    1.6     0.00002360      -322.3504040826  5.84E-05

 *** WARNING in fm/cp_fm_elpa.F:521 :: Setting real_kernel for ELPA failed ***

    10 Broy./Diag. 0.40E+00    1.7     0.00001972      -322.3504686975 -6.46E-05

 *** WARNING in fm/cp_fm_elpa.F:521 :: Setting real_kernel for ELPA failed ***

    11 Broy./Diag. 0.40E+00    1.7     0.00001183      -322.3504357348  3.30E-05

 *** WARNING in fm/cp_fm_elpa.F:521 :: Setting real_kernel for ELPA failed ***

    12 Broy./Diag. 0.40E+00    1.7     0.00000658      -322.3504327923  2.94E-06

 *** WARNING in fm/cp_fm_elpa.F:521 :: Setting real_kernel for ELPA failed ***

    13 Broy./Diag. 0.40E+00    1.7     0.00000441      -322.3504499216 -1.71E-05

 *** WARNING in fm/cp_fm_elpa.F:521 :: Setting real_kernel for ELPA failed ***

    14 Broy./Diag. 0.40E+00    1.7     0.00000301      -322.3504720283 -2.21E-05

 *** WARNING in fm/cp_fm_elpa.F:521 :: Setting real_kernel for ELPA failed ***

    15 Broy./Diag. 0.40E+00    1.7     0.00000255      -322.3504633658  8.66E-06

 *** WARNING in fm/cp_fm_elpa.F:521 :: Setting real_kernel for ELPA failed ***

    16 Broy./Diag. 0.40E+00    1.7     0.00000119      -322.3504550089  8.36E-06

 *** WARNING in fm/cp_fm_elpa.F:521 :: Setting real_kernel for ELPA failed ***

    17 Broy./Diag. 0.40E+00    1.7     0.00000067      -322.3504487195  6.29E-06

  *** SCF run converged in    17 steps ***


  Electronic density on regular grids:       -217.9999999989        0.0000000011
  Core density on regular grids:              219.9999999998       -0.0000000002
  Total charge density on r-space grids:        2.0000000009
  Total charge density g-space grids:           2.0000000009

  Overlap energy of the core charge distribution:               0.00001413989399
  Self energy of the core charge distribution:               -766.83425392616255
  Core Hamiltonian energy:                                    231.14698925252651
  Hartree energy:                                             308.92271482822207
  Exchange-correlation energy:                                -95.46877254991824
  Dispersion energy:                                           -0.11714046401464
  Electronic entropic energy:                                  -0.00000000000000
  Fermi energy:                                                -0.26377152480757

  Total energy:                                              -322.35044871945286

 ENERGY| Total FORCE_EVAL ( QS ) energy [hartree]           -322.350430789078246

 OPT| **************************************************************************
 OPT| Step number                                                             78
 OPT| Optimization method                                                   BFGS
 OPT| Total energy [hartree]                                     -322.3504307891
 OPT| Effective energy change [hartree]                            -0.0000134383
 OPT| Predicted energy change [hartree]                            -0.0000092428
 OPT| Scaling factor                                                0.7797712553
 OPT| Step size                                                     0.0081853354
 OPT| Trust radius                                                  0.3779452266
 OPT| Decrease in energy                                                     YES
 OPT| Used time [s]                                                       28.779
 OPT|
 OPT| Maximum step size                                             0.0081853354
 OPT| Convergence limit for maximum step size                       0.0030000000
 OPT| Maximum step size is converged                                          NO
 OPT|
 OPT| RMS step size                                                 0.0018714497
 OPT| Convergence limit for RMS step size                           0.0015000000
 OPT| RMS step size is converged                                              NO
 OPT|
 OPT| Maximum gradient                                              0.0004737745
 OPT| Convergence limit for maximum gradient                        0.0004500000
 OPT| Maximum gradient is converged                                           NO
 OPT|
 OPT| RMS gradient                                                  0.0000999715
 OPT| Convergence limit for RMS gradient                            0.0003000000
 OPT| RMS gradient is converged                                              YES
 OPT| **************************************************************************
 OPT| Estimated peak process memory after this step [MiB]                    716

 --------------------------
 OPTIMIZATION STEP:     79
 --------------------------

 *** WARNING in fm/cp_fm_elpa.F:521 :: Setting real_kernel for ELPA failed ***


 Number of electrons:                                                        218
 Number of occupied orbitals:                                                109
 Number of molecular orbitals:                                               146

 Number of orbital functions:                                                723
 Number of independent orbital functions:                                    723

 *** WARNING in fm/cp_fm_elpa.F:521 :: Setting real_kernel for ELPA failed ***


 Extrapolation method: ASPC


 SCF WAVEFUNCTION OPTIMIZATION

  Step     Update method      Time    Convergence         Total energy    Change
  ------------------------------------------------------------------------------

 *** WARNING in fm/cp_fm_elpa.F:521 :: Setting real_kernel for ELPA failed ***

     1 Broy./Diag. 0.40E+00    1.1     0.01338300      -322.3494368452 -3.22E+02

 *** WARNING in fm/cp_fm_elpa.F:521 :: Setting real_kernel for ELPA failed ***

     2 Broy./Diag. 0.40E+00    1.5     0.00132095      -322.3444202463  5.02E-03

 *** WARNING in fm/cp_fm_elpa.F:521 :: Setting real_kernel for ELPA failed ***

     3 Broy./Diag. 0.40E+00    1.5     0.00062664      -322.3494869587 -5.07E-03

 *** WARNING in fm/cp_fm_elpa.F:521 :: Setting real_kernel for ELPA failed ***

     4 Broy./Diag. 0.40E+00    1.5     0.00040203      -322.3500303125 -5.43E-04

 *** WARNING in fm/cp_fm_elpa.F:521 :: Setting real_kernel for ELPA failed ***

     5 Broy./Diag. 0.40E+00    1.5     0.00010122      -322.3506307038 -6.00E-04

 *** WARNING in fm/cp_fm_elpa.F:521 :: Setting real_kernel for ELPA failed ***

     6 Broy./Diag. 0.40E+00    1.5     0.00002348      -322.3502432939  3.87E-04

 *** WARNING in fm/cp_fm_elpa.F:521 :: Setting real_kernel for ELPA failed ***

     7 Broy./Diag. 0.40E+00    1.6     0.00002019      -322.3503303821 -8.71E-05

 *** WARNING in fm/cp_fm_elpa.F:521 :: Setting real_kernel for ELPA failed ***

     8 Broy./Diag. 0.40E+00    1.6     0.00001474      -322.3504211341 -9.08E-05

 *** WARNING in fm/cp_fm_elpa.F:521 :: Setting real_kernel for ELPA failed ***

     9 Broy./Diag. 0.40E+00    1.6     0.00001155      -322.3504698934 -4.88E-05

 *** WARNING in fm/cp_fm_elpa.F:521 :: Setting real_kernel for ELPA failed ***

    10 Broy./Diag. 0.40E+00    1.7     0.00001101      -322.3504389668  3.09E-05

 *** WARNING in fm/cp_fm_elpa.F:521 :: Setting real_kernel for ELPA failed ***

    11 Broy./Diag. 0.40E+00    1.7     0.00000678      -322.3504536136 -1.46E-05

 *** WARNING in fm/cp_fm_elpa.F:521 :: Setting real_kernel for ELPA failed ***

    12 Broy./Diag. 0.40E+00    1.7     0.00000386      -322.3504632964 -9.68E-06

 *** WARNING in fm/cp_fm_elpa.F:521 :: Setting real_kernel for ELPA failed ***

    13 Broy./Diag. 0.40E+00    1.7     0.00000249      -322.3504576734  5.62E-06

 *** WARNING in fm/cp_fm_elpa.F:521 :: Setting real_kernel for ELPA failed ***

    14 Broy./Diag. 0.40E+00    1.7     0.00000124      -322.3504460695  1.16E-05

 *** WARNING in fm/cp_fm_elpa.F:521 :: Setting real_kernel for ELPA failed ***

    15 Broy./Diag. 0.40E+00    1.7     0.00000086      -322.3504454442  6.25E-07

  *** SCF run converged in    15 steps ***


  Electronic density on regular grids:       -217.9999999989        0.0000000011
  Core density on regular grids:              219.9999999998       -0.0000000002
  Total charge density on r-space grids:        2.0000000010
  Total charge density g-space grids:           2.0000000010

  Overlap energy of the core charge distribution:               0.00001412000450
  Self energy of the core charge distribution:               -766.83425392616255
  Core Hamiltonian energy:                                    231.14714595506507
  Hartree energy:                                             308.92242137598879
  Exchange-correlation energy:                                -95.46863210816790
  Dispersion energy:                                           -0.11714086097156
  Electronic entropic energy:                                  -0.00000000000000
  Fermi energy:                                                -0.26368976112294

  Total energy:                                              -322.35044544424369

 ENERGY| Total FORCE_EVAL ( QS ) energy [hartree]           -322.350457746980908

 OPT| **************************************************************************
 OPT| Step number                                                             79
 OPT| Optimization method                                                   BFGS
 OPT| Total energy [hartree]                                     -322.3504577470
 OPT| Effective energy change [hartree]                            -0.0000269579
 OPT| Predicted energy change [hartree]                            -0.0000184787
 OPT| Scaling factor                                                0.7797712553
 OPT| Step size                                                     0.0333505488
 OPT| Trust radius                                                  0.3779452266
 OPT| Decrease in energy                                                     YES
 OPT| Used time [s]                                                       25.527
 OPT|
 OPT| Maximum step size                                             0.0333505488
 OPT| Convergence limit for maximum step size                       0.0030000000
 OPT| Maximum step size is converged                                          NO
 OPT|
 OPT| RMS step size                                                 0.0046166213
 OPT| Convergence limit for RMS step size                           0.0015000000
 OPT| RMS step size is converged                                              NO
 OPT|
 OPT| Maximum gradient                                              0.0004204334
 OPT| Convergence limit for maximum gradient                        0.0004500000
 OPT| Maximum gradient is converged                                          YES
 OPT|
 OPT| RMS gradient                                                  0.0001073250
 OPT| Convergence limit for RMS gradient                            0.0003000000
 OPT| RMS gradient is converged                                              YES
 OPT| **************************************************************************
 OPT| Estimated peak process memory after this step [MiB]                    716

 --------------------------
 OPTIMIZATION STEP:     80
 --------------------------

 *** WARNING in fm/cp_fm_elpa.F:521 :: Setting real_kernel for ELPA failed ***


 Number of electrons:                                                        218
 Number of occupied orbitals:                                                109
 Number of molecular orbitals:                                               146

 Number of orbital functions:                                                723
 Number of independent orbital functions:                                    723

 *** WARNING in fm/cp_fm_elpa.F:521 :: Setting real_kernel for ELPA failed ***


 Extrapolation method: ASPC


 SCF WAVEFUNCTION OPTIMIZATION

  Step     Update method      Time    Convergence         Total energy    Change
  ------------------------------------------------------------------------------

 *** WARNING in fm/cp_fm_elpa.F:521 :: Setting real_kernel for ELPA failed ***

     1 Broy./Diag. 0.40E+00    1.1     0.00393701      -322.3502721068 -3.22E+02

 *** WARNING in fm/cp_fm_elpa.F:521 :: Setting real_kernel for ELPA failed ***

     2 Broy./Diag. 0.40E+00    1.4     0.00076924      -322.3470869209  3.19E-03

 *** WARNING in fm/cp_fm_elpa.F:521 :: Setting real_kernel for ELPA failed ***

     3 Broy./Diag. 0.40E+00    1.5     0.00025349      -322.3501191486 -3.03E-03

 *** WARNING in fm/cp_fm_elpa.F:521 :: Setting real_kernel for ELPA failed ***

     4 Broy./Diag. 0.40E+00    1.5     0.00017290      -322.3505877825 -4.69E-04

 *** WARNING in fm/cp_fm_elpa.F:521 :: Setting real_kernel for ELPA failed ***

     5 Broy./Diag. 0.40E+00    1.5     0.00003593      -322.3509815816 -3.94E-04

 *** WARNING in fm/cp_fm_elpa.F:521 :: Setting real_kernel for ELPA failed ***

     6 Broy./Diag. 0.40E+00    1.6     0.00003174      -322.3505989626  3.83E-04

 *** WARNING in fm/cp_fm_elpa.F:521 :: Setting real_kernel for ELPA failed ***

     7 Broy./Diag. 0.40E+00    1.6     0.00001980      -322.3505298278  6.91E-05

 *** WARNING in fm/cp_fm_elpa.F:521 :: Setting real_kernel for ELPA failed ***

     8 Broy./Diag. 0.40E+00    1.6     0.00001475      -322.3504926074  3.72E-05

 *** WARNING in fm/cp_fm_elpa.F:521 :: Setting real_kernel for ELPA failed ***

     9 Broy./Diag. 0.40E+00    1.7     0.00000784      -322.3505019860 -9.38E-06

 *** WARNING in fm/cp_fm_elpa.F:521 :: Setting real_kernel for ELPA failed ***

    10 Broy./Diag. 0.40E+00    1.7     0.00000806      -322.3504910649  1.09E-05

 *** WARNING in fm/cp_fm_elpa.F:521 :: Setting real_kernel for ELPA failed ***

    11 Broy./Diag. 0.40E+00    1.7     0.00000361      -322.3504839008  7.16E-06

 *** WARNING in fm/cp_fm_elpa.F:521 :: Setting real_kernel for ELPA failed ***

    12 Broy./Diag. 0.40E+00    1.7     0.00000224      -322.3504883237 -4.42E-06

 *** WARNING in fm/cp_fm_elpa.F:521 :: Setting real_kernel for ELPA failed ***

    13 Broy./Diag. 0.40E+00    1.7     0.00000131      -322.3504925623 -4.24E-06

 *** WARNING in fm/cp_fm_elpa.F:521 :: Setting real_kernel for ELPA failed ***

    14 Broy./Diag. 0.40E+00    1.7     0.00000098      -322.3504902220  2.34E-06

  *** SCF run converged in    14 steps ***


  Electronic density on regular grids:       -217.9999999988        0.0000000012
  Core density on regular grids:              219.9999999998       -0.0000000002
  Total charge density on r-space grids:        2.0000000010
  Total charge density g-space grids:           2.0000000010

  Overlap energy of the core charge distribution:               0.00001411512707
  Self energy of the core charge distribution:               -766.83425392616255
  Core Hamiltonian energy:                                    231.14961879531819
  Hartree energy:                                             308.92043995264243
  Exchange-correlation energy:                                -95.46915392477564
  Dispersion energy:                                           -0.11715523418915
  Electronic entropic energy:                                  -0.00000000000000
  Fermi energy:                                                -0.26361242222558

  Total energy:                                              -322.35049022203970

 ENERGY| Total FORCE_EVAL ( QS ) energy [hartree]           -322.350481504738809

 OPT| **************************************************************************
 OPT| Step number                                                             80
 OPT| Optimization method                                                   BFGS
 OPT| Total energy [hartree]                                     -322.3504815047
 OPT| Effective energy change [hartree]                            -0.0000237578
 OPT| Predicted energy change [hartree]                            -0.0000190772
 OPT| Scaling factor                                                0.7797712553
 OPT| Step size                                                     0.0600933389
 OPT| Trust radius                                                  0.3779452266
 OPT| Decrease in energy                                                     YES
 OPT| Used time [s]                                                       24.140
 OPT|
 OPT| Maximum step size                                             0.0600933389
 OPT| Convergence limit for maximum step size                       0.0030000000
 OPT| Maximum step size is converged                                          NO
 OPT|
 OPT| RMS step size                                                 0.0076676463
 OPT| Convergence limit for RMS step size                           0.0015000000
 OPT| RMS step size is converged                                              NO
 OPT|
 OPT| Maximum gradient                                              0.0005929590
 OPT| Convergence limit for maximum gradient                        0.0004500000
 OPT| Maximum gradient is converged                                           NO
 OPT|
 OPT| RMS gradient                                                  0.0001635033
 OPT| Convergence limit for RMS gradient                            0.0003000000
 OPT| RMS gradient is converged                                              YES
 OPT| **************************************************************************
 OPT| Estimated peak process memory after this step [MiB]                    716

 --------------------------
 OPTIMIZATION STEP:     81
 --------------------------

 *** WARNING in fm/cp_fm_elpa.F:521 :: Setting real_kernel for ELPA failed ***


 Number of electrons:                                                        218
 Number of occupied orbitals:                                                109
 Number of molecular orbitals:                                               146

 Number of orbital functions:                                                723
 Number of independent orbital functions:                                    723

 *** WARNING in fm/cp_fm_elpa.F:521 :: Setting real_kernel for ELPA failed ***


 Extrapolation method: ASPC


 SCF WAVEFUNCTION OPTIMIZATION

  Step     Update method      Time    Convergence         Total energy    Change
  ------------------------------------------------------------------------------

 *** WARNING in fm/cp_fm_elpa.F:521 :: Setting real_kernel for ELPA failed ***

     1 Broy./Diag. 0.40E+00    1.2     0.00351706      -322.3504138371 -3.22E+02

 *** WARNING in fm/cp_fm_elpa.F:521 :: Setting real_kernel for ELPA failed ***

     2 Broy./Diag. 0.40E+00    1.6     0.00046413      -322.3489213959  1.49E-03

 *** WARNING in fm/cp_fm_elpa.F:521 :: Setting real_kernel for ELPA failed ***

     3 Broy./Diag. 0.40E+00    1.7     0.00024880      -322.3501001054 -1.18E-03

 *** WARNING in fm/cp_fm_elpa.F:521 :: Setting real_kernel for ELPA failed ***

     4 Broy./Diag. 0.40E+00    1.7     0.00010800      -322.3501811072 -8.10E-05

 *** WARNING in fm/cp_fm_elpa.F:521 :: Setting real_kernel for ELPA failed ***

     5 Broy./Diag. 0.40E+00    1.7     0.00002480      -322.3504543509 -2.73E-04

 *** WARNING in fm/cp_fm_elpa.F:521 :: Setting real_kernel for ELPA failed ***

     6 Broy./Diag. 0.40E+00    1.7     0.00000911      -322.3503108307  1.44E-04

 *** WARNING in fm/cp_fm_elpa.F:521 :: Setting real_kernel for ELPA failed ***

     7 Broy./Diag. 0.40E+00    1.7     0.00000829      -322.3503696460 -5.88E-05

 *** WARNING in fm/cp_fm_elpa.F:521 :: Setting real_kernel for ELPA failed ***

     8 Broy./Diag. 0.40E+00    1.8     0.00000480      -322.3504289981 -5.94E-05

 *** WARNING in fm/cp_fm_elpa.F:521 :: Setting real_kernel for ELPA failed ***

     9 Broy./Diag. 0.40E+00    1.8     0.00000360      -322.3504765642 -4.76E-05

 *** WARNING in fm/cp_fm_elpa.F:521 :: Setting real_kernel for ELPA failed ***

    10 Broy./Diag. 0.40E+00    1.9     0.00000336      -322.3504843111 -7.75E-06

 *** WARNING in fm/cp_fm_elpa.F:521 :: Setting real_kernel for ELPA failed ***

    11 Broy./Diag. 0.40E+00    1.9     0.00000260      -322.3504923955 -8.08E-06

 *** WARNING in fm/cp_fm_elpa.F:521 :: Setting real_kernel for ELPA failed ***

    12 Broy./Diag. 0.40E+00    1.9     0.00000157      -322.3504991873 -6.79E-06

 *** WARNING in fm/cp_fm_elpa.F:521 :: Setting real_kernel for ELPA failed ***

    13 Broy./Diag. 0.40E+00    1.9     0.00000073      -322.3505005343 -1.35E-06

  *** SCF run converged in    13 steps ***


  Electronic density on regular grids:       -217.9999999988        0.0000000012
  Core density on regular grids:              219.9999999998       -0.0000000002
  Total charge density on r-space grids:        2.0000000010
  Total charge density g-space grids:           2.0000000010

  Overlap energy of the core charge distribution:               0.00001411638011
  Self energy of the core charge distribution:               -766.83425392616255
  Core Hamiltonian energy:                                    231.15281013938613
  Hartree energy:                                             308.91808625357368
  Exchange-correlation energy:                                -95.46998710245444
  Dispersion energy:                                           -0.11717001499870
  Electronic entropic energy:                                  -0.00000000000000
  Fermi energy:                                                -0.26368762961923

  Total energy:                                              -322.35050053427574

 ENERGY| Total FORCE_EVAL ( QS ) energy [hartree]           -322.350495901587749

 OPT| **************************************************************************
 OPT| Step number                                                             81
 OPT| Optimization method                                                   BFGS
 OPT| Total energy [hartree]                                     -322.3504959016
 OPT| Effective energy change [hartree]                            -0.0000143968
 OPT| Predicted energy change [hartree]                            -0.0000098703
 OPT| Scaling factor                                                0.7797712553
 OPT| Step size                                                     0.0233598845
 OPT| Trust radius                                                  0.3779452266
 OPT| Decrease in energy                                                     YES
 OPT| Used time [s]                                                       24.604
 OPT|
 OPT| Maximum step size                                             0.0233598845
 OPT| Convergence limit for maximum step size                       0.0030000000
 OPT| Maximum step size is converged                                          NO
 OPT|
 OPT| RMS step size                                                 0.0039152464
 OPT| Convergence limit for RMS step size                           0.0015000000
 OPT| RMS step size is converged                                              NO
 OPT|
 OPT| Maximum gradient                                              0.0006213988
 OPT| Convergence limit for maximum gradient                        0.0004500000
 OPT| Maximum gradient is converged                                           NO
 OPT|
 OPT| RMS gradient                                                  0.0001466236
 OPT| Convergence limit for RMS gradient                            0.0003000000
 OPT| RMS gradient is converged                                              YES
 OPT| **************************************************************************
 OPT| Estimated peak process memory after this step [MiB]                    716

 --------------------------
 OPTIMIZATION STEP:     82
 --------------------------

 *** WARNING in fm/cp_fm_elpa.F:521 :: Setting real_kernel for ELPA failed ***


 Number of electrons:                                                        218
 Number of occupied orbitals:                                                109
 Number of molecular orbitals:                                               146

 Number of orbital functions:                                                723
 Number of independent orbital functions:                                    723

 *** WARNING in fm/cp_fm_elpa.F:521 :: Setting real_kernel for ELPA failed ***


 Extrapolation method: ASPC


 SCF WAVEFUNCTION OPTIMIZATION

  Step     Update method      Time    Convergence         Total energy    Change
  ------------------------------------------------------------------------------

 *** WARNING in fm/cp_fm_elpa.F:521 :: Setting real_kernel for ELPA failed ***

     1 Broy./Diag. 0.40E+00    1.2     0.00413717      -322.3504074676 -3.22E+02

 *** WARNING in fm/cp_fm_elpa.F:521 :: Setting real_kernel for ELPA failed ***

     2 Broy./Diag. 0.40E+00    1.6     0.00034822      -322.3493342622  1.07E-03

 *** WARNING in fm/cp_fm_elpa.F:521 :: Setting real_kernel for ELPA failed ***

     3 Broy./Diag. 0.40E+00    1.6     0.00018793      -322.3503609541 -1.03E-03

 *** WARNING in fm/cp_fm_elpa.F:521 :: Setting real_kernel for ELPA failed ***

     4 Broy./Diag. 0.40E+00    1.7     0.00013946      -322.3505408588 -1.80E-04

 *** WARNING in fm/cp_fm_elpa.F:521 :: Setting real_kernel for ELPA failed ***

     5 Broy./Diag. 0.40E+00    1.7     0.00003438      -322.3505969815 -5.61E-05

 *** WARNING in fm/cp_fm_elpa.F:521 :: Setting real_kernel for ELPA failed ***

     6 Broy./Diag. 0.40E+00    1.7     0.00001988      -322.3505077844  8.92E-05

 *** WARNING in fm/cp_fm_elpa.F:521 :: Setting real_kernel for ELPA failed ***

     7 Broy./Diag. 0.40E+00    1.7     0.00001024      -322.3505156610 -7.88E-06

 *** WARNING in fm/cp_fm_elpa.F:521 :: Setting real_kernel for ELPA failed ***

     8 Broy./Diag. 0.40E+00    1.8     0.00000840      -322.3505029072  1.28E-05

 *** WARNING in fm/cp_fm_elpa.F:521 :: Setting real_kernel for ELPA failed ***

     9 Broy./Diag. 0.40E+00    1.8     0.00000664      -322.3505059968 -3.09E-06

 *** WARNING in fm/cp_fm_elpa.F:521 :: Setting real_kernel for ELPA failed ***

    10 Broy./Diag. 0.40E+00    1.8     0.00000577      -322.3505075533 -1.56E-06

 *** WARNING in fm/cp_fm_elpa.F:521 :: Setting real_kernel for ELPA failed ***

    11 Broy./Diag. 0.40E+00    1.8     0.00000255      -322.3505167578 -9.20E-06

 *** WARNING in fm/cp_fm_elpa.F:521 :: Setting real_kernel for ELPA failed ***

    12 Broy./Diag. 0.40E+00    1.8     0.00000146      -322.3505176815 -9.24E-07

 *** WARNING in fm/cp_fm_elpa.F:521 :: Setting real_kernel for ELPA failed ***

    13 Broy./Diag. 0.40E+00    1.9     0.00000075      -322.3505180348 -3.53E-07

  *** SCF run converged in    13 steps ***


  Electronic density on regular grids:       -217.9999999988        0.0000000012
  Core density on regular grids:              219.9999999998       -0.0000000002
  Total charge density on r-space grids:        2.0000000010
  Total charge density g-space grids:           2.0000000010

  Overlap energy of the core charge distribution:               0.00001412582278
  Self energy of the core charge distribution:               -766.83425392616255
  Core Hamiltonian energy:                                    231.15607713689474
  Hartree energy:                                             308.91567339036214
  Exchange-correlation energy:                                -95.47083962052196
  Dispersion energy:                                           -0.11718914119215
  Electronic entropic energy:                                  -0.00000000000000
  Fermi energy:                                                -0.26376263617573

  Total energy:                                              -322.35051803479701

 ENERGY| Total FORCE_EVAL ( QS ) energy [hartree]           -322.350512188801474

 OPT| **************************************************************************
 OPT| Step number                                                             82
 OPT| Optimization method                                                   BFGS
 OPT| Total energy [hartree]                                     -322.3505121888
 OPT| Effective energy change [hartree]                            -0.0000162872
 OPT| Predicted energy change [hartree]                            -0.0000129180
 OPT| Scaling factor                                                0.7797712553
 OPT| Step size                                                     0.0382010516
 OPT| Trust radius                                                  0.3779452266
 OPT| Decrease in energy                                                     YES
 OPT| Used time [s]                                                       24.480
 OPT|
 OPT| Maximum step size                                             0.0382010516
 OPT| Convergence limit for maximum step size                       0.0030000000
 OPT| Maximum step size is converged                                          NO
 OPT|
 OPT| RMS step size                                                 0.0052918202
 OPT| Convergence limit for RMS step size                           0.0015000000
 OPT| RMS step size is converged                                              NO
 OPT|
 OPT| Maximum gradient                                              0.0003527687
 OPT| Convergence limit for maximum gradient                        0.0004500000
 OPT| Maximum gradient is converged                                          YES
 OPT|
 OPT| RMS gradient                                                  0.0000990906
 OPT| Convergence limit for RMS gradient                            0.0003000000
 OPT| RMS gradient is converged                                              YES
 OPT| **************************************************************************
 OPT| Estimated peak process memory after this step [MiB]                    716

 --------------------------
 OPTIMIZATION STEP:     83
 --------------------------

 *** WARNING in fm/cp_fm_elpa.F:521 :: Setting real_kernel for ELPA failed ***


 Number of electrons:                                                        218
 Number of occupied orbitals:                                                109
 Number of molecular orbitals:                                               146

 Number of orbital functions:                                                723
 Number of independent orbital functions:                                    723

 *** WARNING in fm/cp_fm_elpa.F:521 :: Setting real_kernel for ELPA failed ***


 Extrapolation method: ASPC


 SCF WAVEFUNCTION OPTIMIZATION

  Step     Update method      Time    Convergence         Total energy    Change
  ------------------------------------------------------------------------------

 *** WARNING in fm/cp_fm_elpa.F:521 :: Setting real_kernel for ELPA failed ***

     1 Broy./Diag. 0.40E+00    1.2     0.00366722      -322.3504541332 -3.22E+02

 *** WARNING in fm/cp_fm_elpa.F:521 :: Setting real_kernel for ELPA failed ***

     2 Broy./Diag. 0.40E+00    1.6     0.00058234      -322.3477558369  2.70E-03

 *** WARNING in fm/cp_fm_elpa.F:521 :: Setting real_kernel for ELPA failed ***

     3 Broy./Diag. 0.40E+00    1.7     0.00031388      -322.3499427277 -2.19E-03

 *** WARNING in fm/cp_fm_elpa.F:521 :: Setting real_kernel for ELPA failed ***

     4 Broy./Diag. 0.40E+00    1.7     0.00012693      -322.3502385459 -2.96E-04

 *** WARNING in fm/cp_fm_elpa.F:521 :: Setting real_kernel for ELPA failed ***

     5 Broy./Diag. 0.40E+00    1.7     0.00002470      -322.3504767045 -2.38E-04

 *** WARNING in fm/cp_fm_elpa.F:521 :: Setting real_kernel for ELPA failed ***

     6 Broy./Diag. 0.40E+00    1.7     0.00000828      -322.3503102881  1.66E-04

 *** WARNING in fm/cp_fm_elpa.F:521 :: Setting real_kernel for ELPA failed ***

     7 Broy./Diag. 0.40E+00    1.8     0.00000784      -322.3503740459 -6.38E-05

 *** WARNING in fm/cp_fm_elpa.F:521 :: Setting real_kernel for ELPA failed ***

     8 Broy./Diag. 0.40E+00    1.8     0.00000431      -322.3504420359 -6.80E-05

 *** WARNING in fm/cp_fm_elpa.F:521 :: Setting real_kernel for ELPA failed ***

     9 Broy./Diag. 0.40E+00    1.8     0.00000300      -322.3504932562 -5.12E-05

 *** WARNING in fm/cp_fm_elpa.F:521 :: Setting real_kernel for ELPA failed ***

    10 Broy./Diag. 0.40E+00    1.9     0.00000233      -322.3505031474 -9.89E-06

 *** WARNING in fm/cp_fm_elpa.F:521 :: Setting real_kernel for ELPA failed ***

    11 Broy./Diag. 0.40E+00    1.9     0.00000193      -322.3505166949 -1.35E-05

 *** WARNING in fm/cp_fm_elpa.F:521 :: Setting real_kernel for ELPA failed ***

    12 Broy./Diag. 0.40E+00    1.9     0.00000125      -322.3505255616 -8.87E-06

 *** WARNING in fm/cp_fm_elpa.F:521 :: Setting real_kernel for ELPA failed ***

    13 Broy./Diag. 0.40E+00    1.9     0.00000063      -322.3505263023 -7.41E-07

  *** SCF run converged in    13 steps ***


  Electronic density on regular grids:       -217.9999999988        0.0000000012
  Core density on regular grids:              219.9999999998       -0.0000000002
  Total charge density on r-space grids:        2.0000000010
  Total charge density g-space grids:           2.0000000010

  Overlap energy of the core charge distribution:               0.00001413443014
  Self energy of the core charge distribution:               -766.83425392616255
  Core Hamiltonian energy:                                    231.15753654592964
  Hartree energy:                                             308.91462654811369
  Exchange-correlation energy:                                -95.47125229223315
  Dispersion energy:                                           -0.11719731239181
  Electronic entropic energy:                                  -0.00000000000000
  Fermi energy:                                                -0.26384616071672

  Total energy:                                              -322.35052630231411

 ENERGY| Total FORCE_EVAL ( QS ) energy [hartree]           -322.350523039441214

 OPT| **************************************************************************
 OPT| Step number                                                             83
 OPT| Optimization method                                                   BFGS
 OPT| Total energy [hartree]                                     -322.3505230394
 OPT| Effective energy change [hartree]                            -0.0000108506
 OPT| Predicted energy change [hartree]                            -0.0000079019
 OPT| Scaling factor                                                0.7797712553
 OPT| Step size                                                     0.0209495228
 OPT| Trust radius                                                  0.3779452266
 OPT| Decrease in energy                                                     YES
 OPT| Used time [s]                                                       24.632
 OPT|
 OPT| Maximum step size                                             0.0209495228
 OPT| Convergence limit for maximum step size                       0.0030000000
 OPT| Maximum step size is converged                                          NO
 OPT|
 OPT| RMS step size                                                 0.0032716218
 OPT| Convergence limit for RMS step size                           0.0015000000
 OPT| RMS step size is converged                                              NO
 OPT|
 OPT| Maximum gradient                                              0.0004332099
 OPT| Convergence limit for maximum gradient                        0.0004500000
 OPT| Maximum gradient is converged                                          YES
 OPT|
 OPT| RMS gradient                                                  0.0000974447
 OPT| Convergence limit for RMS gradient                            0.0003000000
 OPT| RMS gradient is converged                                              YES
 OPT| **************************************************************************
 OPT| Estimated peak process memory after this step [MiB]                    716

 --------------------------
 OPTIMIZATION STEP:     84
 --------------------------

 *** WARNING in fm/cp_fm_elpa.F:521 :: Setting real_kernel for ELPA failed ***


 Number of electrons:                                                        218
 Number of occupied orbitals:                                                109
 Number of molecular orbitals:                                               146

 Number of orbital functions:                                                723
 Number of independent orbital functions:                                    723

 *** WARNING in fm/cp_fm_elpa.F:521 :: Setting real_kernel for ELPA failed ***


 Extrapolation method: ASPC


 SCF WAVEFUNCTION OPTIMIZATION

  Step     Update method      Time    Convergence         Total energy    Change
  ------------------------------------------------------------------------------

 *** WARNING in fm/cp_fm_elpa.F:521 :: Setting real_kernel for ELPA failed ***

     1 Broy./Diag. 0.40E+00    1.2     0.00263789      -322.3504806273 -3.22E+02

 *** WARNING in fm/cp_fm_elpa.F:521 :: Setting real_kernel for ELPA failed ***

     2 Broy./Diag. 0.40E+00    1.6     0.00046757      -322.3486358837  1.84E-03

 *** WARNING in fm/cp_fm_elpa.F:521 :: Setting real_kernel for ELPA failed ***

     3 Broy./Diag. 0.40E+00    1.7     0.00021608      -322.3505228451 -1.89E-03

 *** WARNING in fm/cp_fm_elpa.F:521 :: Setting real_kernel for ELPA failed ***

     4 Broy./Diag. 0.40E+00    1.7     0.00015256      -322.3504341166  8.87E-05

 *** WARNING in fm/cp_fm_elpa.F:521 :: Setting real_kernel for ELPA failed ***

     5 Broy./Diag. 0.40E+00    1.7     0.00002627      -322.3506388193 -2.05E-04

 *** WARNING in fm/cp_fm_elpa.F:521 :: Setting real_kernel for ELPA failed ***

     6 Broy./Diag. 0.40E+00    1.7     0.00001278      -322.3505401563  9.87E-05

 *** WARNING in fm/cp_fm_elpa.F:521 :: Setting real_kernel for ELPA failed ***

     7 Broy./Diag. 0.40E+00    1.7     0.00000746      -322.3505524929 -1.23E-05

 *** WARNING in fm/cp_fm_elpa.F:521 :: Setting real_kernel for ELPA failed ***

     8 Broy./Diag. 0.40E+00    1.8     0.00000586      -322.3505449839  7.51E-06

 *** WARNING in fm/cp_fm_elpa.F:521 :: Setting real_kernel for ELPA failed ***

     9 Broy./Diag. 0.40E+00    1.8     0.00000442      -322.3505359509  9.03E-06

 *** WARNING in fm/cp_fm_elpa.F:521 :: Setting real_kernel for ELPA failed ***

    10 Broy./Diag. 0.40E+00    1.8     0.00000419      -322.3505317549  4.20E-06

 *** WARNING in fm/cp_fm_elpa.F:521 :: Setting real_kernel for ELPA failed ***

    11 Broy./Diag. 0.40E+00    1.8     0.00000179      -322.3505383747 -6.62E-06

 *** WARNING in fm/cp_fm_elpa.F:521 :: Setting real_kernel for ELPA failed ***

    12 Broy./Diag. 0.40E+00    1.9     0.00000119      -322.3505378677  5.07E-07

 *** WARNING in fm/cp_fm_elpa.F:521 :: Setting real_kernel for ELPA failed ***

    13 Broy./Diag. 0.40E+00    1.9     0.00000053      -322.3505378844 -1.67E-08

  *** SCF run converged in    13 steps ***


  Electronic density on regular grids:       -217.9999999988        0.0000000012
  Core density on regular grids:              219.9999999998       -0.0000000002
  Total charge density on r-space grids:        2.0000000010
  Total charge density g-space grids:           2.0000000010

  Overlap energy of the core charge distribution:               0.00001413597895
  Self energy of the core charge distribution:               -766.83425392616255
  Core Hamiltonian energy:                                    231.15634834263128
  Hartree energy:                                             308.91543968555879
  Exchange-correlation energy:                                -95.47088726800251
  Dispersion energy:                                           -0.11719885435971
  Electronic entropic energy:                                  -0.00000000000000
  Fermi energy:                                                -0.26386632570130

  Total energy:                                              -322.35053788435567

 ENERGY| Total FORCE_EVAL ( QS ) energy [hartree]           -322.350534363832594

 OPT| **************************************************************************
 OPT| Step number                                                             84
 OPT| Optimization method                                                   BFGS
 OPT| Total energy [hartree]                                     -322.3505343638
 OPT| Effective energy change [hartree]                            -0.0000113244
 OPT| Predicted energy change [hartree]                            -0.0000081587
 OPT| Scaling factor                                                0.7797712553
 OPT| Step size                                                     0.0264776662
 OPT| Trust radius                                                  0.3779452266
 OPT| Decrease in energy                                                     YES
 OPT| Used time [s]                                                       24.529
 OPT|
 OPT| Maximum step size                                             0.0264776662
 OPT| Convergence limit for maximum step size                       0.0030000000
 OPT| Maximum step size is converged                                          NO
 OPT|
 OPT| RMS step size                                                 0.0031666165
 OPT| Convergence limit for RMS step size                           0.0015000000
 OPT| RMS step size is converged                                              NO
 OPT|
 OPT| Maximum gradient                                              0.0005131279
 OPT| Convergence limit for maximum gradient                        0.0004500000
 OPT| Maximum gradient is converged                                           NO
 OPT|
 OPT| RMS gradient                                                  0.0001186117
 OPT| Convergence limit for RMS gradient                            0.0003000000
 OPT| RMS gradient is converged                                              YES
 OPT| **************************************************************************
 OPT| Estimated peak process memory after this step [MiB]                    716

 --------------------------
 OPTIMIZATION STEP:     85
 --------------------------

 *** WARNING in fm/cp_fm_elpa.F:521 :: Setting real_kernel for ELPA failed ***


 Number of electrons:                                                        218
 Number of occupied orbitals:                                                109
 Number of molecular orbitals:                                               146

 Number of orbital functions:                                                723
 Number of independent orbital functions:                                    723

 *** WARNING in fm/cp_fm_elpa.F:521 :: Setting real_kernel for ELPA failed ***


 Extrapolation method: ASPC


 SCF WAVEFUNCTION OPTIMIZATION

  Step     Update method      Time    Convergence         Total energy    Change
  ------------------------------------------------------------------------------

 *** WARNING in fm/cp_fm_elpa.F:521 :: Setting real_kernel for ELPA failed ***

     1 Broy./Diag. 0.40E+00    1.2     0.00238911      -322.3504969325 -3.22E+02

 *** WARNING in fm/cp_fm_elpa.F:521 :: Setting real_kernel for ELPA failed ***

     2 Broy./Diag. 0.40E+00    1.6     0.00033774      -322.3471102803  3.39E-03

 *** WARNING in fm/cp_fm_elpa.F:521 :: Setting real_kernel for ELPA failed ***

     3 Broy./Diag. 0.40E+00    1.7     0.00020618      -322.3499855818 -2.88E-03

 *** WARNING in fm/cp_fm_elpa.F:521 :: Setting real_kernel for ELPA failed ***

     4 Broy./Diag. 0.40E+00    1.7     0.00010777      -322.3503375385 -3.52E-04

 *** WARNING in fm/cp_fm_elpa.F:521 :: Setting real_kernel for ELPA failed ***

     5 Broy./Diag. 0.40E+00    1.7     0.00002057      -322.3505856952 -2.48E-04

 *** WARNING in fm/cp_fm_elpa.F:521 :: Setting real_kernel for ELPA failed ***

     6 Broy./Diag. 0.40E+00    1.7     0.00000722      -322.3504202444  1.65E-04

 *** WARNING in fm/cp_fm_elpa.F:521 :: Setting real_kernel for ELPA failed ***

     7 Broy./Diag. 0.40E+00    1.7     0.00000618      -322.3504598879 -3.96E-05

 *** WARNING in fm/cp_fm_elpa.F:521 :: Setting real_kernel for ELPA failed ***

     8 Broy./Diag. 0.40E+00    1.8     0.00000558      -322.3505055812 -4.57E-05

 *** WARNING in fm/cp_fm_elpa.F:521 :: Setting real_kernel for ELPA failed ***

     9 Broy./Diag. 0.40E+00    1.8     0.00000327      -322.3505328779 -2.73E-05

 *** WARNING in fm/cp_fm_elpa.F:521 :: Setting real_kernel for ELPA failed ***

    10 Broy./Diag. 0.40E+00    1.9     0.00000190      -322.3505352189 -2.34E-06

 *** WARNING in fm/cp_fm_elpa.F:521 :: Setting real_kernel for ELPA failed ***

    11 Broy./Diag. 0.40E+00    1.9     0.00000159      -322.3505433354 -8.12E-06

 *** WARNING in fm/cp_fm_elpa.F:521 :: Setting real_kernel for ELPA failed ***

    12 Broy./Diag. 0.40E+00    1.9     0.00000130      -322.3505475776 -4.24E-06

 *** WARNING in fm/cp_fm_elpa.F:521 :: Setting real_kernel for ELPA failed ***

    13 Broy./Diag. 0.40E+00    1.9     0.00000072      -322.3505467278  8.50E-07

  *** SCF run converged in    13 steps ***


  Electronic density on regular grids:       -217.9999999988        0.0000000012
  Core density on regular grids:              219.9999999998       -0.0000000002
  Total charge density on r-space grids:        2.0000000010
  Total charge density g-space grids:           2.0000000010

  Overlap energy of the core charge distribution:               0.00001413355408
  Self energy of the core charge distribution:               -766.83425392616255
  Core Hamiltonian energy:                                    231.15412316591585
  Hartree energy:                                             308.91701761061597
  Exchange-correlation energy:                                -95.47024890345770
  Dispersion energy:                                           -0.11719880830798
  Electronic entropic energy:                                  -0.00000000000000
  Fermi energy:                                                -0.26391553342668

  Total energy:                                              -322.35054672784236

 ENERGY| Total FORCE_EVAL ( QS ) energy [hartree]           -322.350544800980515

 OPT| **************************************************************************
 OPT| Step number                                                             85
 OPT| Optimization method                                                   BFGS
 OPT| Total energy [hartree]                                     -322.3505448010
 OPT| Effective energy change [hartree]                            -0.0000104371
 OPT| Predicted energy change [hartree]                            -0.0000074611
 OPT| Scaling factor                                                0.7797712553
 OPT| Step size                                                     0.0234278165
 OPT| Trust radius                                                  0.3779452266
 OPT| Decrease in energy                                                     YES
 OPT| Used time [s]                                                       24.574
 OPT|
 OPT| Maximum step size                                             0.0234278165
 OPT| Convergence limit for maximum step size                       0.0030000000
 OPT| Maximum step size is converged                                          NO
 OPT|
 OPT| RMS step size                                                 0.0032525038
 OPT| Convergence limit for RMS step size                           0.0015000000
 OPT| RMS step size is converged                                              NO
 OPT|
 OPT| Maximum gradient                                              0.0003902050
 OPT| Convergence limit for maximum gradient                        0.0004500000
 OPT| Maximum gradient is converged                                          YES
 OPT|
 OPT| RMS gradient                                                  0.0001148429
 OPT| Convergence limit for RMS gradient                            0.0003000000
 OPT| RMS gradient is converged                                              YES
 OPT| **************************************************************************
 OPT| Estimated peak process memory after this step [MiB]                    716

 --------------------------
 OPTIMIZATION STEP:     86
 --------------------------

 *** WARNING in fm/cp_fm_elpa.F:521 :: Setting real_kernel for ELPA failed ***


 Number of electrons:                                                        218
 Number of occupied orbitals:                                                109
 Number of molecular orbitals:                                               146

 Number of orbital functions:                                                723
 Number of independent orbital functions:                                    723

 *** WARNING in fm/cp_fm_elpa.F:521 :: Setting real_kernel for ELPA failed ***


 Extrapolation method: ASPC


 SCF WAVEFUNCTION OPTIMIZATION

  Step     Update method      Time    Convergence         Total energy    Change
  ------------------------------------------------------------------------------

 *** WARNING in fm/cp_fm_elpa.F:521 :: Setting real_kernel for ELPA failed ***

     1 Broy./Diag. 0.40E+00    1.2     0.00229040      -322.3505141900 -3.22E+02

 *** WARNING in fm/cp_fm_elpa.F:521 :: Setting real_kernel for ELPA failed ***

     2 Broy./Diag. 0.40E+00    1.6     0.00049748      -322.3482942070  2.22E-03

 *** WARNING in fm/cp_fm_elpa.F:521 :: Setting real_kernel for ELPA failed ***

     3 Broy./Diag. 0.40E+00    1.6     0.00023643      -322.3504632968 -2.17E-03

 *** WARNING in fm/cp_fm_elpa.F:521 :: Setting real_kernel for ELPA failed ***

     4 Broy./Diag. 0.40E+00    1.6     0.00013957      -322.3503455834  1.18E-04

 *** WARNING in fm/cp_fm_elpa.F:521 :: Setting real_kernel for ELPA failed ***

     5 Broy./Diag. 0.40E+00    1.6     0.00001439      -322.3506974663 -3.52E-04

 *** WARNING in fm/cp_fm_elpa.F:521 :: Setting real_kernel for ELPA failed ***

     6 Broy./Diag. 0.40E+00    1.6     0.00000889      -322.3505716198  1.26E-04

 *** WARNING in fm/cp_fm_elpa.F:521 :: Setting real_kernel for ELPA failed ***

     7 Broy./Diag. 0.40E+00    1.7     0.00000422      -322.3505641277  7.49E-06

 *** WARNING in fm/cp_fm_elpa.F:521 :: Setting real_kernel for ELPA failed ***

     8 Broy./Diag. 0.40E+00    1.7     0.00000466      -322.3505611140  3.01E-06

 *** WARNING in fm/cp_fm_elpa.F:521 :: Setting real_kernel for ELPA failed ***

     9 Broy./Diag. 0.40E+00    1.7     0.00000375      -322.3505603168  7.97E-07

 *** WARNING in fm/cp_fm_elpa.F:521 :: Setting real_kernel for ELPA failed ***

    10 Broy./Diag. 0.40E+00    1.8     0.00000335      -322.3505529898  7.33E-06

 *** WARNING in fm/cp_fm_elpa.F:521 :: Setting real_kernel for ELPA failed ***

    11 Broy./Diag. 0.40E+00    1.8     0.00000136      -322.3505538518 -8.62E-07

 *** WARNING in fm/cp_fm_elpa.F:521 :: Setting real_kernel for ELPA failed ***

    12 Broy./Diag. 0.40E+00    1.8     0.00000098      -322.3505562381 -2.39E-06

  *** SCF run converged in    12 steps ***


  Electronic density on regular grids:       -217.9999999988        0.0000000012
  Core density on regular grids:              219.9999999998       -0.0000000002
  Total charge density on r-space grids:        2.0000000010
  Total charge density g-space grids:           2.0000000010

  Overlap energy of the core charge distribution:               0.00001412424694
  Self energy of the core charge distribution:               -766.83425392616255
  Core Hamiltonian energy:                                    231.15187212824281
  Hartree energy:                                             308.91860915808655
  Exchange-correlation energy:                                -95.46959679803135
  Dispersion energy:                                           -0.11720092450644
  Electronic entropic energy:                                  -0.00000000000000
  Fermi energy:                                                -0.26393144965470

  Total energy:                                              -322.35055623812406

 ENERGY| Total FORCE_EVAL ( QS ) energy [hartree]           -322.350553517366507

 OPT| **************************************************************************
 OPT| Step number                                                             86
 OPT| Optimization method                                                   BFGS
 OPT| Total energy [hartree]                                     -322.3505535174
 OPT| Effective energy change [hartree]                            -0.0000087164
 OPT| Predicted energy change [hartree]                            -0.0000066270
 OPT| Scaling factor                                                0.7797712553
 OPT| Step size                                                     0.0270555766
 OPT| Trust radius                                                  0.3779452266
 OPT| Decrease in energy                                                     YES
 OPT| Used time [s]                                                       21.944
 OPT|
 OPT| Maximum step size                                             0.0270555766
 OPT| Convergence limit for maximum step size                       0.0030000000
 OPT| Maximum step size is converged                                          NO
 OPT|
 OPT| RMS step size                                                 0.0032155517
 OPT| Convergence limit for RMS step size                           0.0015000000
 OPT| RMS step size is converged                                              NO
 OPT|
 OPT| Maximum gradient                                              0.0004211206
 OPT| Convergence limit for maximum gradient                        0.0004500000
 OPT| Maximum gradient is converged                                          YES
 OPT|
 OPT| RMS gradient                                                  0.0000903343
 OPT| Convergence limit for RMS gradient                            0.0003000000
 OPT| RMS gradient is converged                                              YES
 OPT| **************************************************************************
 OPT| Estimated peak process memory after this step [MiB]                    716

 --------------------------
 OPTIMIZATION STEP:     87
 --------------------------

 *** WARNING in fm/cp_fm_elpa.F:521 :: Setting real_kernel for ELPA failed ***


 Number of electrons:                                                        218
 Number of occupied orbitals:                                                109
 Number of molecular orbitals:                                               146

 Number of orbital functions:                                                723
 Number of independent orbital functions:                                    723

 *** WARNING in fm/cp_fm_elpa.F:521 :: Setting real_kernel for ELPA failed ***


 Extrapolation method: ASPC


 SCF WAVEFUNCTION OPTIMIZATION

  Step     Update method      Time    Convergence         Total energy    Change
  ------------------------------------------------------------------------------

 *** WARNING in fm/cp_fm_elpa.F:521 :: Setting real_kernel for ELPA failed ***

     1 Broy./Diag. 0.40E+00    1.2     0.00181552      -322.3505282932 -3.22E+02

 *** WARNING in fm/cp_fm_elpa.F:521 :: Setting real_kernel for ELPA failed ***

     2 Broy./Diag. 0.40E+00    1.6     0.00039020      -322.3482055612  2.32E-03

 *** WARNING in fm/cp_fm_elpa.F:521 :: Setting real_kernel for ELPA failed ***

     3 Broy./Diag. 0.40E+00    1.7     0.00015174      -322.3502846595 -2.08E-03

 *** WARNING in fm/cp_fm_elpa.F:521 :: Setting real_kernel for ELPA failed ***

     4 Broy./Diag. 0.40E+00    1.7     0.00007807      -322.3503292937 -4.46E-05

 *** WARNING in fm/cp_fm_elpa.F:521 :: Setting real_kernel for ELPA failed ***

     5 Broy./Diag. 0.40E+00    1.7     0.00001507      -322.3506717122 -3.42E-04

 *** WARNING in fm/cp_fm_elpa.F:521 :: Setting real_kernel for ELPA failed ***

     6 Broy./Diag. 0.40E+00    1.7     0.00000836      -322.3505431929  1.29E-04

 *** WARNING in fm/cp_fm_elpa.F:521 :: Setting real_kernel for ELPA failed ***

     7 Broy./Diag. 0.40E+00    1.7     0.00000562      -322.3505353789  7.81E-06

 *** WARNING in fm/cp_fm_elpa.F:521 :: Setting real_kernel for ELPA failed ***

     8 Broy./Diag. 0.40E+00    1.8     0.00000520      -322.3505399677 -4.59E-06

 *** WARNING in fm/cp_fm_elpa.F:521 :: Setting real_kernel for ELPA failed ***

     9 Broy./Diag. 0.40E+00    1.8     0.00000352      -322.3505574225 -1.75E-05

 *** WARNING in fm/cp_fm_elpa.F:521 :: Setting real_kernel for ELPA failed ***

    10 Broy./Diag. 0.40E+00    1.9     0.00000340      -322.3505599372 -2.51E-06

 *** WARNING in fm/cp_fm_elpa.F:521 :: Setting real_kernel for ELPA failed ***

    11 Broy./Diag. 0.40E+00    1.9     0.00000123      -322.3505601082 -1.71E-07

 *** WARNING in fm/cp_fm_elpa.F:521 :: Setting real_kernel for ELPA failed ***

    12 Broy./Diag. 0.40E+00    1.9     0.00000106      -322.3505617979 -1.69E-06

 *** WARNING in fm/cp_fm_elpa.F:521 :: Setting real_kernel for ELPA failed ***

    13 Broy./Diag. 0.40E+00    1.9     0.00000061      -322.3505628890 -1.09E-06

  *** SCF run converged in    13 steps ***


  Electronic density on regular grids:       -217.9999999988        0.0000000012
  Core density on regular grids:              219.9999999998       -0.0000000002
  Total charge density on r-space grids:        2.0000000010
  Total charge density g-space grids:           2.0000000010

  Overlap energy of the core charge distribution:               0.00001411829131
  Self energy of the core charge distribution:               -766.83425392616255
  Core Hamiltonian energy:                                    231.15119269334099
  Hartree energy:                                             308.91906064313366
  Exchange-correlation energy:                                -95.46936694061812
  Dispersion energy:                                           -0.11720947700343
  Electronic entropic energy:                                  -0.00000000000000
  Fermi energy:                                                -0.26394439195894

  Total energy:                                              -322.35056288901802

 ENERGY| Total FORCE_EVAL ( QS ) energy [hartree]           -322.350560103100236

 OPT| **************************************************************************
 OPT| Step number                                                             87
 OPT| Optimization method                                                   BFGS
 OPT| Total energy [hartree]                                     -322.3505601031
 OPT| Effective energy change [hartree]                            -0.0000065857
 OPT| Predicted energy change [hartree]                            -0.0000050706
 OPT| Scaling factor                                                0.7797712553
 OPT| Step size                                                     0.0291527453
 OPT| Trust radius                                                  0.3779452266
 OPT| Decrease in energy                                                     YES
 OPT| Used time [s]                                                       24.589
 OPT|
 OPT| Maximum step size                                             0.0291527453
 OPT| Convergence limit for maximum step size                       0.0030000000
 OPT| Maximum step size is converged                                          NO
 OPT|
 OPT| RMS step size                                                 0.0030342693
 OPT| Convergence limit for RMS step size                           0.0015000000
 OPT| RMS step size is converged                                              NO
 OPT|
 OPT| Maximum gradient                                              0.0003773848
 OPT| Convergence limit for maximum gradient                        0.0004500000
 OPT| Maximum gradient is converged                                          YES
 OPT|
 OPT| RMS gradient                                                  0.0000752803
 OPT| Convergence limit for RMS gradient                            0.0003000000
 OPT| RMS gradient is converged                                              YES
 OPT| **************************************************************************
 OPT| Estimated peak process memory after this step [MiB]                    716

 --------------------------
 OPTIMIZATION STEP:     88
 --------------------------

 *** WARNING in fm/cp_fm_elpa.F:521 :: Setting real_kernel for ELPA failed ***


 Number of electrons:                                                        218
 Number of occupied orbitals:                                                109
 Number of molecular orbitals:                                               146

 Number of orbital functions:                                                723
 Number of independent orbital functions:                                    723

 *** WARNING in fm/cp_fm_elpa.F:521 :: Setting real_kernel for ELPA failed ***


 Extrapolation method: ASPC


 SCF WAVEFUNCTION OPTIMIZATION

  Step     Update method      Time    Convergence         Total energy    Change
  ------------------------------------------------------------------------------

 *** WARNING in fm/cp_fm_elpa.F:521 :: Setting real_kernel for ELPA failed ***

     1 Broy./Diag. 0.40E+00    1.2     0.00169343      -322.3505402203 -3.22E+02

 *** WARNING in fm/cp_fm_elpa.F:521 :: Setting real_kernel for ELPA failed ***

     2 Broy./Diag. 0.40E+00    1.6     0.00035124      -322.3496092323  9.31E-04

 *** WARNING in fm/cp_fm_elpa.F:521 :: Setting real_kernel for ELPA failed ***

     3 Broy./Diag. 0.40E+00    1.7     0.00018099      -322.3503829263 -7.74E-04

 *** WARNING in fm/cp_fm_elpa.F:521 :: Setting real_kernel for ELPA failed ***

     4 Broy./Diag. 0.40E+00    1.7     0.00007496      -322.3504606153 -7.77E-05

 *** WARNING in fm/cp_fm_elpa.F:521 :: Setting real_kernel for ELPA failed ***

     5 Broy./Diag. 0.40E+00    1.7     0.00001192      -322.3506810528 -2.20E-04

 *** WARNING in fm/cp_fm_elpa.F:521 :: Setting real_kernel for ELPA failed ***

     6 Broy./Diag. 0.40E+00    1.7     0.00000620      -322.3505733177  1.08E-04

 *** WARNING in fm/cp_fm_elpa.F:521 :: Setting real_kernel for ELPA failed ***

     7 Broy./Diag. 0.40E+00    1.7     0.00000252      -322.3505716107  1.71E-06

 *** WARNING in fm/cp_fm_elpa.F:521 :: Setting real_kernel for ELPA failed ***

     8 Broy./Diag. 0.40E+00    1.7     0.00000412      -322.3505624371  9.17E-06

 *** WARNING in fm/cp_fm_elpa.F:521 :: Setting real_kernel for ELPA failed ***

     9 Broy./Diag. 0.40E+00    1.6     0.00000315      -322.3505714714 -9.03E-06

 *** WARNING in fm/cp_fm_elpa.F:521 :: Setting real_kernel for ELPA failed ***

    10 Broy./Diag. 0.40E+00    1.7     0.00000258      -322.3505674895  3.98E-06

 *** WARNING in fm/cp_fm_elpa.F:521 :: Setting real_kernel for ELPA failed ***

    11 Broy./Diag. 0.40E+00    1.7     0.00000109      -322.3505653383  2.15E-06

 *** WARNING in fm/cp_fm_elpa.F:521 :: Setting real_kernel for ELPA failed ***

    12 Broy./Diag. 0.40E+00    1.7     0.00000065      -322.3505670475 -1.71E-06

  *** SCF run converged in    12 steps ***


  Electronic density on regular grids:       -217.9999999988        0.0000000012
  Core density on regular grids:              219.9999999998       -0.0000000002
  Total charge density on r-space grids:        2.0000000010
  Total charge density g-space grids:           2.0000000010

  Overlap energy of the core charge distribution:               0.00001411737931
  Self energy of the core charge distribution:               -766.83425392616255
  Core Hamiltonian energy:                                    231.15233709152784
  Hartree energy:                                             308.91823764995291
  Exchange-correlation energy:                                -95.46968102542721
  Dispersion energy:                                           -0.11722095475926
  Electronic entropic energy:                                  -0.00000000000000
  Fermi energy:                                                -0.26395992876274

  Total energy:                                              -322.35056704748882

 ENERGY| Total FORCE_EVAL ( QS ) energy [hartree]           -322.350565306617568

 OPT| **************************************************************************
 OPT| Step number                                                             88
 OPT| Optimization method                                                   BFGS
 OPT| Total energy [hartree]                                     -322.3505653066
 OPT| Effective energy change [hartree]                            -0.0000052035
 OPT| Predicted energy change [hartree]                            -0.0000037676
 OPT| Scaling factor                                                0.7797712553
 OPT| Step size                                                     0.0268052062
 OPT| Trust radius                                                  0.3779452266
 OPT| Decrease in energy                                                     YES
 OPT| Used time [s]                                                       21.862
 OPT|
 OPT| Maximum step size                                             0.0268052062
 OPT| Convergence limit for maximum step size                       0.0030000000
 OPT| Maximum step size is converged                                          NO
 OPT|
 OPT| RMS step size                                                 0.0028028699
 OPT| Convergence limit for RMS step size                           0.0015000000
 OPT| RMS step size is converged                                              NO
 OPT|
 OPT| Maximum gradient                                              0.0002040254
 OPT| Convergence limit for maximum gradient                        0.0004500000
 OPT| Maximum gradient is converged                                          YES
 OPT|
 OPT| RMS gradient                                                  0.0000658525
 OPT| Convergence limit for RMS gradient                            0.0003000000
 OPT| RMS gradient is converged                                              YES
 OPT| **************************************************************************
 OPT| Estimated peak process memory after this step [MiB]                    716

 --------------------------
 OPTIMIZATION STEP:     89
 --------------------------

 *** WARNING in fm/cp_fm_elpa.F:521 :: Setting real_kernel for ELPA failed ***


 Number of electrons:                                                        218
 Number of occupied orbitals:                                                109
 Number of molecular orbitals:                                               146

 Number of orbital functions:                                                723
 Number of independent orbital functions:                                    723

 *** WARNING in fm/cp_fm_elpa.F:521 :: Setting real_kernel for ELPA failed ***


 Extrapolation method: ASPC


 SCF WAVEFUNCTION OPTIMIZATION

  Step     Update method      Time    Convergence         Total energy    Change
  ------------------------------------------------------------------------------

 *** WARNING in fm/cp_fm_elpa.F:521 :: Setting real_kernel for ELPA failed ***

     1 Broy./Diag. 0.40E+00    1.1     0.00164803      -322.3505475154 -3.22E+02

 *** WARNING in fm/cp_fm_elpa.F:521 :: Setting real_kernel for ELPA failed ***

     2 Broy./Diag. 0.40E+00    1.5     0.00041153      -322.3499060757  6.41E-04

 *** WARNING in fm/cp_fm_elpa.F:521 :: Setting real_kernel for ELPA failed ***

     3 Broy./Diag. 0.40E+00    1.6     0.00015826      -322.3507352164 -8.29E-04

 *** WARNING in fm/cp_fm_elpa.F:521 :: Setting real_kernel for ELPA failed ***

     4 Broy./Diag. 0.40E+00    1.6     0.00006743      -322.3503901371  3.45E-04

 *** WARNING in fm/cp_fm_elpa.F:521 :: Setting real_kernel for ELPA failed ***

     5 Broy./Diag. 0.40E+00    1.6     0.00001083      -322.3506460731 -2.56E-04

 *** WARNING in fm/cp_fm_elpa.F:521 :: Setting real_kernel for ELPA failed ***

     6 Broy./Diag. 0.40E+00    1.6     0.00000681      -322.3505736043  7.25E-05

 *** WARNING in fm/cp_fm_elpa.F:521 :: Setting real_kernel for ELPA failed ***

     7 Broy./Diag. 0.40E+00    1.7     0.00000385      -322.3505723332  1.27E-06

 *** WARNING in fm/cp_fm_elpa.F:521 :: Setting real_kernel for ELPA failed ***

     8 Broy./Diag. 0.40E+00    1.7     0.00000417      -322.3505602893  1.20E-05

 *** WARNING in fm/cp_fm_elpa.F:521 :: Setting real_kernel for ELPA failed ***

     9 Broy./Diag. 0.40E+00    1.7     0.00000292      -322.3505677547 -7.47E-06

 *** WARNING in fm/cp_fm_elpa.F:521 :: Setting real_kernel for ELPA failed ***

    10 Broy./Diag. 0.40E+00    1.8     0.00000264      -322.3505698264 -2.07E-06

 *** WARNING in fm/cp_fm_elpa.F:521 :: Setting real_kernel for ELPA failed ***

    11 Broy./Diag. 0.40E+00    1.8     0.00000120      -322.3505700162 -1.90E-07

 *** WARNING in fm/cp_fm_elpa.F:521 :: Setting real_kernel for ELPA failed ***

    12 Broy./Diag. 0.40E+00    1.8     0.00000078      -322.3505706202 -6.04E-07

  *** SCF run converged in    12 steps ***


  Electronic density on regular grids:       -217.9999999988        0.0000000012
  Core density on regular grids:              219.9999999998       -0.0000000002
  Total charge density on r-space grids:        2.0000000010
  Total charge density g-space grids:           2.0000000010

  Overlap energy of the core charge distribution:               0.00001411886764
  Self energy of the core charge distribution:               -766.83425392616255
  Core Hamiltonian energy:                                    231.15404399703402
  Hartree energy:                                             308.91699780174707
  Exchange-correlation energy:                                -95.47013761931176
  Dispersion energy:                                           -0.11723499238805
  Electronic entropic energy:                                  -0.00000000000000
  Fermi energy:                                                -0.26397300262185

  Total energy:                                              -322.35057062021360

 ENERGY| Total FORCE_EVAL ( QS ) energy [hartree]           -322.350569325914989

 OPT| **************************************************************************
 OPT| Step number                                                             89
 OPT| Optimization method                                                   BFGS
 OPT| Total energy [hartree]                                     -322.3505693259
 OPT| Effective energy change [hartree]                            -0.0000040193
 OPT| Predicted energy change [hartree]                            -0.0000030020
 OPT| Scaling factor                                                0.7797712553
 OPT| Step size                                                     0.0234644548
 OPT| Trust radius                                                  0.3779452266
 OPT| Decrease in energy                                                     YES
 OPT| Used time [s]                                                       21.637
 OPT|
 OPT| Maximum step size                                             0.0234644548
 OPT| Convergence limit for maximum step size                       0.0030000000
 OPT| Maximum step size is converged                                          NO
 OPT|
 OPT| RMS step size                                                 0.0026571938
 OPT| Convergence limit for RMS step size                           0.0015000000
 OPT| RMS step size is converged                                              NO
 OPT|
 OPT| Maximum gradient                                              0.0002508344
 OPT| Convergence limit for maximum gradient                        0.0004500000
 OPT| Maximum gradient is converged                                          YES
 OPT|
 OPT| RMS gradient                                                  0.0000592587
 OPT| Convergence limit for RMS gradient                            0.0003000000
 OPT| RMS gradient is converged                                              YES
 OPT| **************************************************************************
 OPT| Estimated peak process memory after this step [MiB]                    716

 --------------------------
 OPTIMIZATION STEP:     90
 --------------------------

 *** WARNING in fm/cp_fm_elpa.F:521 :: Setting real_kernel for ELPA failed ***


 Number of electrons:                                                        218
 Number of occupied orbitals:                                                109
 Number of molecular orbitals:                                               146

 Number of orbital functions:                                                723
 Number of independent orbital functions:                                    723

 *** WARNING in fm/cp_fm_elpa.F:521 :: Setting real_kernel for ELPA failed ***


 Extrapolation method: ASPC


 SCF WAVEFUNCTION OPTIMIZATION

  Step     Update method      Time    Convergence         Total energy    Change
  ------------------------------------------------------------------------------

 *** WARNING in fm/cp_fm_elpa.F:521 :: Setting real_kernel for ELPA failed ***

     1 Broy./Diag. 0.40E+00    1.1     0.00171905      -322.3505556907 -3.22E+02

 *** WARNING in fm/cp_fm_elpa.F:521 :: Setting real_kernel for ELPA failed ***

     2 Broy./Diag. 0.40E+00    1.5     0.00024856      -322.3497451848  8.11E-04

 *** WARNING in fm/cp_fm_elpa.F:521 :: Setting real_kernel for ELPA failed ***

     3 Broy./Diag. 0.40E+00    1.6     0.00016145      -322.3503212774 -5.76E-04

 *** WARNING in fm/cp_fm_elpa.F:521 :: Setting real_kernel for ELPA failed ***

     4 Broy./Diag. 0.40E+00    1.6     0.00006176      -322.3505573647 -2.36E-04

 *** WARNING in fm/cp_fm_elpa.F:521 :: Setting real_kernel for ELPA failed ***

     5 Broy./Diag. 0.40E+00    1.6     0.00001058      -322.3506391536 -8.18E-05

 *** WARNING in fm/cp_fm_elpa.F:521 :: Setting real_kernel for ELPA failed ***

     6 Broy./Diag. 0.40E+00    1.6     0.00000501      -322.3505493977  8.98E-05

 *** WARNING in fm/cp_fm_elpa.F:521 :: Setting real_kernel for ELPA failed ***

     7 Broy./Diag. 0.40E+00    1.7     0.00000194      -322.3505601523 -1.08E-05

 *** WARNING in fm/cp_fm_elpa.F:521 :: Setting real_kernel for ELPA failed ***

     8 Broy./Diag. 0.40E+00    1.7     0.00000285      -322.3505608067 -6.54E-07

 *** WARNING in fm/cp_fm_elpa.F:521 :: Setting real_kernel for ELPA failed ***

     9 Broy./Diag. 0.40E+00    1.7     0.00000247      -322.3505719177 -1.11E-05

 *** WARNING in fm/cp_fm_elpa.F:521 :: Setting real_kernel for ELPA failed ***

    10 Broy./Diag. 0.40E+00    1.8     0.00000186      -322.3505706496  1.27E-06

 *** WARNING in fm/cp_fm_elpa.F:521 :: Setting real_kernel for ELPA failed ***

    11 Broy./Diag. 0.40E+00    1.8     0.00000092      -322.3505721157 -1.47E-06

  *** SCF run converged in    11 steps ***


  Electronic density on regular grids:       -217.9999999988        0.0000000012
  Core density on regular grids:              219.9999999998       -0.0000000002
  Total charge density on r-space grids:        2.0000000010
  Total charge density g-space grids:           2.0000000010

  Overlap energy of the core charge distribution:               0.00001412240482
  Self energy of the core charge distribution:               -766.83425392616255
  Core Hamiltonian energy:                                    231.15548663577079
  Hartree energy:                                             308.91596962974171
  Exchange-correlation energy:                                -95.47054344481242
  Dispersion energy:                                           -0.11724513266630
  Electronic entropic energy:                                  -0.00000000000000
  Fermi energy:                                                -0.26398661174336

  Total energy:                                              -322.35057211572393

 ENERGY| Total FORCE_EVAL ( QS ) energy [hartree]           -322.350572795282631

 OPT| **************************************************************************
 OPT| Step number                                                             90
 OPT| Optimization method                                                   BFGS
 OPT| Total energy [hartree]                                     -322.3505727953
 OPT| Effective energy change [hartree]                            -0.0000034694
 OPT| Predicted energy change [hartree]                            -0.0000023645
 OPT| Scaling factor                                                0.7797712553
 OPT| Step size                                                     0.0211056353
 OPT| Trust radius                                                  0.3779452266
 OPT| Decrease in energy                                                     YES
 OPT| Used time [s]                                                       19.854
 OPT|
 OPT| Maximum step size                                             0.0211056353
 OPT| Convergence limit for maximum step size                       0.0030000000
 OPT| Maximum step size is converged                                          NO
 OPT|
 OPT| RMS step size                                                 0.0023476968
 OPT| Convergence limit for RMS step size                           0.0015000000
 OPT| RMS step size is converged                                              NO
 OPT|
 OPT| Maximum gradient                                              0.0002108952
 OPT| Convergence limit for maximum gradient                        0.0004500000
 OPT| Maximum gradient is converged                                          YES
 OPT|
 OPT| RMS gradient                                                  0.0000542058
 OPT| Convergence limit for RMS gradient                            0.0003000000
 OPT| RMS gradient is converged                                              YES
 OPT| **************************************************************************
 OPT| Estimated peak process memory after this step [MiB]                    716

 --------------------------
 OPTIMIZATION STEP:     91
 --------------------------

 *** WARNING in fm/cp_fm_elpa.F:521 :: Setting real_kernel for ELPA failed ***


 Number of electrons:                                                        218
 Number of occupied orbitals:                                                109
 Number of molecular orbitals:                                               146

 Number of orbital functions:                                                723
 Number of independent orbital functions:                                    723

 *** WARNING in fm/cp_fm_elpa.F:521 :: Setting real_kernel for ELPA failed ***


 Extrapolation method: ASPC


 SCF WAVEFUNCTION OPTIMIZATION

  Step     Update method      Time    Convergence         Total energy    Change
  ------------------------------------------------------------------------------

 *** WARNING in fm/cp_fm_elpa.F:521 :: Setting real_kernel for ELPA failed ***

     1 Broy./Diag. 0.40E+00    1.1     0.00228290      -322.3505269488 -3.22E+02

 *** WARNING in fm/cp_fm_elpa.F:521 :: Setting real_kernel for ELPA failed ***

     2 Broy./Diag. 0.40E+00    1.5     0.00047741      -322.3482073055  2.32E-03

 *** WARNING in fm/cp_fm_elpa.F:521 :: Setting real_kernel for ELPA failed ***

     3 Broy./Diag. 0.40E+00    1.5     0.00021774      -322.3505712204 -2.36E-03

 *** WARNING in fm/cp_fm_elpa.F:521 :: Setting real_kernel for ELPA failed ***

     4 Broy./Diag. 0.40E+00    1.5     0.00011542      -322.3505221707  4.90E-05

 *** WARNING in fm/cp_fm_elpa.F:521 :: Setting real_kernel for ELPA failed ***

     5 Broy./Diag. 0.40E+00    1.5     0.00001375      -322.3508358246 -3.14E-04

 *** WARNING in fm/cp_fm_elpa.F:521 :: Setting real_kernel for ELPA failed ***

     6 Broy./Diag. 0.40E+00    1.6     0.00001247      -322.3506338993  2.02E-04

 *** WARNING in fm/cp_fm_elpa.F:521 :: Setting real_kernel for ELPA failed ***

     7 Broy./Diag. 0.40E+00    1.6     0.00000867      -322.3506145792  1.93E-05

 *** WARNING in fm/cp_fm_elpa.F:521 :: Setting real_kernel for ELPA failed ***

     8 Broy./Diag. 0.40E+00    1.6     0.00000675      -322.3506077888  6.79E-06

 *** WARNING in fm/cp_fm_elpa.F:521 :: Setting real_kernel for ELPA failed ***

     9 Broy./Diag. 0.40E+00    1.7     0.00000531      -322.3505897740  1.80E-05

 *** WARNING in fm/cp_fm_elpa.F:521 :: Setting real_kernel for ELPA failed ***

    10 Broy./Diag. 0.40E+00    1.7     0.00000553      -322.3505774391  1.23E-05

 *** WARNING in fm/cp_fm_elpa.F:521 :: Setting real_kernel for ELPA failed ***

    11 Broy./Diag. 0.40E+00    1.7     0.00000173      -322.3505775176 -7.85E-08

 *** WARNING in fm/cp_fm_elpa.F:521 :: Setting real_kernel for ELPA failed ***

    12 Broy./Diag. 0.40E+00    1.7     0.00000135      -322.3505834547 -5.94E-06

 *** WARNING in fm/cp_fm_elpa.F:521 :: Setting real_kernel for ELPA failed ***

    13 Broy./Diag. 0.40E+00    1.7     0.00000074      -322.3505829725  4.82E-07

  *** SCF run converged in    13 steps ***


  Electronic density on regular grids:       -217.9999999988        0.0000000012
  Core density on regular grids:              219.9999999998       -0.0000000002
  Total charge density on r-space grids:        2.0000000010
  Total charge density g-space grids:           2.0000000010

  Overlap energy of the core charge distribution:               0.00001412304305
  Self energy of the core charge distribution:               -766.83425392616255
  Core Hamiltonian energy:                                    231.15580185647019
  Hartree energy:                                             308.91569683638011
  Exchange-correlation energy:                                -95.47058522180198
  Dispersion energy:                                           -0.11725664043701
  Electronic entropic energy:                                  -0.00000000000000
  Fermi energy:                                                -0.26396060723385

  Total energy:                                              -322.35058297250828

 ENERGY| Total FORCE_EVAL ( QS ) energy [hartree]           -322.350577309708228

 OPT| **************************************************************************
 OPT| Step number                                                             91
 OPT| Optimization method                                                   BFGS
 OPT| Total energy [hartree]                                     -322.3505773097
 OPT| Effective energy change [hartree]                            -0.0000045144
 OPT| Predicted energy change [hartree]                            -0.0000031578
 OPT| Scaling factor                                                0.7797712553
 OPT| Step size                                                     0.0426552665
 OPT| Trust radius                                                  0.3779452266
 OPT| Decrease in energy                                                     YES
 OPT| Used time [s]                                                       22.477
 OPT|
 OPT| Maximum step size                                             0.0426552665
 OPT| Convergence limit for maximum step size                       0.0030000000
 OPT| Maximum step size is converged                                          NO
 OPT|
 OPT| RMS step size                                                 0.0043228724
 OPT| Convergence limit for RMS step size                           0.0015000000
 OPT| RMS step size is converged                                              NO
 OPT|
 OPT| Maximum gradient                                              0.0003622741
 OPT| Convergence limit for maximum gradient                        0.0004500000
 OPT| Maximum gradient is converged                                          YES
 OPT|
 OPT| RMS gradient                                                  0.0000698225
 OPT| Convergence limit for RMS gradient                            0.0003000000
 OPT| RMS gradient is converged                                              YES
 OPT| **************************************************************************
 OPT| Estimated peak process memory after this step [MiB]                    716

 --------------------------
 OPTIMIZATION STEP:     92
 --------------------------

 *** WARNING in fm/cp_fm_elpa.F:521 :: Setting real_kernel for ELPA failed ***


 Number of electrons:                                                        218
 Number of occupied orbitals:                                                109
 Number of molecular orbitals:                                               146

 Number of orbital functions:                                                723
 Number of independent orbital functions:                                    723

 *** WARNING in fm/cp_fm_elpa.F:521 :: Setting real_kernel for ELPA failed ***


 Extrapolation method: ASPC


 SCF WAVEFUNCTION OPTIMIZATION

  Step     Update method      Time    Convergence         Total energy    Change
  ------------------------------------------------------------------------------

 *** WARNING in fm/cp_fm_elpa.F:521 :: Setting real_kernel for ELPA failed ***

     1 Broy./Diag. 0.40E+00    1.1     0.00219204      -322.3505353379 -3.22E+02

 *** WARNING in fm/cp_fm_elpa.F:521 :: Setting real_kernel for ELPA failed ***

     2 Broy./Diag. 0.40E+00    1.5     0.00058170      -322.3472280571  3.31E-03

 *** WARNING in fm/cp_fm_elpa.F:521 :: Setting real_kernel for ELPA failed ***

     3 Broy./Diag. 0.40E+00    1.6     0.00027967      -322.3500712415 -2.84E-03

 *** WARNING in fm/cp_fm_elpa.F:521 :: Setting real_kernel for ELPA failed ***

     4 Broy./Diag. 0.40E+00    1.6     0.00010512      -322.3503957893 -3.25E-04

 *** WARNING in fm/cp_fm_elpa.F:521 :: Setting real_kernel for ELPA failed ***

     5 Broy./Diag. 0.40E+00    1.6     0.00001322      -322.3507511698 -3.55E-04

 *** WARNING in fm/cp_fm_elpa.F:521 :: Setting real_kernel for ELPA failed ***

     6 Broy./Diag. 0.40E+00    1.6     0.00000807      -322.3505353132  2.16E-04

 *** WARNING in fm/cp_fm_elpa.F:521 :: Setting real_kernel for ELPA failed ***

     7 Broy./Diag. 0.40E+00    1.7     0.00000329      -322.3505409538 -5.64E-06

 *** WARNING in fm/cp_fm_elpa.F:521 :: Setting real_kernel for ELPA failed ***

     8 Broy./Diag. 0.40E+00    1.7     0.00000462      -322.3505581162 -1.72E-05

 *** WARNING in fm/cp_fm_elpa.F:521 :: Setting real_kernel for ELPA failed ***

     9 Broy./Diag. 0.40E+00    1.7     0.00000371      -322.3505791155 -2.10E-05

 *** WARNING in fm/cp_fm_elpa.F:521 :: Setting real_kernel for ELPA failed ***

    10 Broy./Diag. 0.40E+00    1.8     0.00000299      -322.3505758580  3.26E-06

 *** WARNING in fm/cp_fm_elpa.F:521 :: Setting real_kernel for ELPA failed ***

    11 Broy./Diag. 0.40E+00    1.8     0.00000160      -322.3505781678 -2.31E-06

 *** WARNING in fm/cp_fm_elpa.F:521 :: Setting real_kernel for ELPA failed ***

    12 Broy./Diag. 0.40E+00    1.8     0.00000086      -322.3505850849 -6.92E-06

  *** SCF run converged in    12 steps ***


  Electronic density on regular grids:       -217.9999999988        0.0000000012
  Core density on regular grids:              219.9999999998       -0.0000000002
  Total charge density on r-space grids:        2.0000000010
  Total charge density g-space grids:           2.0000000010

  Overlap energy of the core charge distribution:               0.00001411948355
  Self energy of the core charge distribution:               -766.83425392616255
  Core Hamiltonian energy:                                    231.15485569240693
  Hartree energy:                                             308.91633165979533
  Exchange-correlation energy:                                -95.47026727852844
  Dispersion energy:                                           -0.11726535188977
  Electronic entropic energy:                                  -0.00000000000000
  Fermi energy:                                                -0.26394687664061

  Total energy:                                              -322.35058508489493

 ENERGY| Total FORCE_EVAL ( QS ) energy [hartree]           -322.350581400432759

 OPT| **************************************************************************
 OPT| Step number                                                             92
 OPT| Optimization method                                                   BFGS
 OPT| Total energy [hartree]                                     -322.3505814004
 OPT| Effective energy change [hartree]                            -0.0000040907
 OPT| Predicted energy change [hartree]                            -0.0000025961
 OPT| Scaling factor                                                0.7797712553
 OPT| Step size                                                     0.0400841825
 OPT| Trust radius                                                  0.3779452266
 OPT| Decrease in energy                                                     YES
 OPT| Used time [s]                                                       21.632
 OPT|
 OPT| Maximum step size                                             0.0400841825
 OPT| Convergence limit for maximum step size                       0.0030000000
 OPT| Maximum step size is converged                                          NO
 OPT|
 OPT| RMS step size                                                 0.0040594284
 OPT| Convergence limit for RMS step size                           0.0015000000
 OPT| RMS step size is converged                                              NO
 OPT|
 OPT| Maximum gradient                                              0.0004092390
 OPT| Convergence limit for maximum gradient                        0.0004500000
 OPT| Maximum gradient is converged                                          YES
 OPT|
 OPT| RMS gradient                                                  0.0000774214
 OPT| Convergence limit for RMS gradient                            0.0003000000
 OPT| RMS gradient is converged                                              YES
 OPT| **************************************************************************
 OPT| Estimated peak process memory after this step [MiB]                    716

 --------------------------
 OPTIMIZATION STEP:     93
 --------------------------

 *** WARNING in fm/cp_fm_elpa.F:521 :: Setting real_kernel for ELPA failed ***


 Number of electrons:                                                        218
 Number of occupied orbitals:                                                109
 Number of molecular orbitals:                                               146

 Number of orbital functions:                                                723
 Number of independent orbital functions:                                    723

 *** WARNING in fm/cp_fm_elpa.F:521 :: Setting real_kernel for ELPA failed ***


 Extrapolation method: ASPC


 SCF WAVEFUNCTION OPTIMIZATION

  Step     Update method      Time    Convergence         Total energy    Change
  ------------------------------------------------------------------------------

 *** WARNING in fm/cp_fm_elpa.F:521 :: Setting real_kernel for ELPA failed ***

     1 Broy./Diag. 0.40E+00    1.1     0.00904348      -322.3499436974 -3.22E+02

 *** WARNING in fm/cp_fm_elpa.F:521 :: Setting real_kernel for ELPA failed ***

     2 Broy./Diag. 0.40E+00    1.5     0.00155339      -322.3447252127  5.22E-03

 *** WARNING in fm/cp_fm_elpa.F:521 :: Setting real_kernel for ELPA failed ***

     3 Broy./Diag. 0.40E+00    1.6     0.00063918      -322.3506575307 -5.93E-03

 *** WARNING in fm/cp_fm_elpa.F:521 :: Setting real_kernel for ELPA failed ***

     4 Broy./Diag. 0.40E+00    1.6     0.00041653      -322.3507062689 -4.87E-05

 *** WARNING in fm/cp_fm_elpa.F:521 :: Setting real_kernel for ELPA failed ***

     5 Broy./Diag. 0.40E+00    1.6     0.00005481      -322.3514707527 -7.64E-04

 *** WARNING in fm/cp_fm_elpa.F:521 :: Setting real_kernel for ELPA failed ***

     6 Broy./Diag. 0.40E+00    1.6     0.00004525      -322.3508526087  6.18E-04

 *** WARNING in fm/cp_fm_elpa.F:521 :: Setting real_kernel for ELPA failed ***

     7 Broy./Diag. 0.40E+00    1.7     0.00003383      -322.3507592081  9.34E-05

 *** WARNING in fm/cp_fm_elpa.F:521 :: Setting real_kernel for ELPA failed ***

     8 Broy./Diag. 0.40E+00    1.7     0.00002424      -322.3506828179  7.64E-05

 *** WARNING in fm/cp_fm_elpa.F:521 :: Setting real_kernel for ELPA failed ***

     9 Broy./Diag. 0.40E+00    1.7     0.00001875      -322.3506252117  5.76E-05

 *** WARNING in fm/cp_fm_elpa.F:521 :: Setting real_kernel for ELPA failed ***

    10 Broy./Diag. 0.40E+00    1.8     0.00001999      -322.3506005284  2.47E-05

 *** WARNING in fm/cp_fm_elpa.F:521 :: Setting real_kernel for ELPA failed ***

    11 Broy./Diag. 0.40E+00    1.8     0.00000469      -322.3506013559 -8.28E-07

 *** WARNING in fm/cp_fm_elpa.F:521 :: Setting real_kernel for ELPA failed ***

    12 Broy./Diag. 0.40E+00    1.8     0.00000395      -322.3506092793 -7.92E-06

 *** WARNING in fm/cp_fm_elpa.F:521 :: Setting real_kernel for ELPA failed ***

    13 Broy./Diag. 0.40E+00    1.8     0.00000346      -322.3506019058  7.37E-06

 *** WARNING in fm/cp_fm_elpa.F:521 :: Setting real_kernel for ELPA failed ***

    14 Broy./Diag. 0.40E+00    1.8     0.00000240      -322.3506003516  1.55E-06

 *** WARNING in fm/cp_fm_elpa.F:521 :: Setting real_kernel for ELPA failed ***

    15 Broy./Diag. 0.40E+00    1.8     0.00000118      -322.3506004408 -8.92E-08

 *** WARNING in fm/cp_fm_elpa.F:521 :: Setting real_kernel for ELPA failed ***

    16 Broy./Diag. 0.40E+00    1.8     0.00000078      -322.3505990363  1.40E-06

  *** SCF run converged in    16 steps ***


  Electronic density on regular grids:       -217.9999999988        0.0000000012
  Core density on regular grids:              219.9999999998       -0.0000000002
  Total charge density on r-space grids:        2.0000000011
  Total charge density g-space grids:           2.0000000011

  Overlap energy of the core charge distribution:               0.00001410162422
  Self energy of the core charge distribution:               -766.83425392616255
  Core Hamiltonian energy:                                    231.14960174127231
  Hartree energy:                                             308.91993590654658
  Exchange-correlation energy:                                -95.46860422662478
  Dispersion energy:                                           -0.11729263299717
  Electronic entropic energy:                                  -0.00000000000000
  Fermi energy:                                                -0.26387251995097

  Total energy:                                              -322.35059903634141

 ENERGY| Total FORCE_EVAL ( QS ) energy [hartree]           -322.350590447863624

 OPT| **************************************************************************
 OPT| Step number                                                             93
 OPT| Optimization method                                                   BFGS
 OPT| Total energy [hartree]                                     -322.3505904479
 OPT| Effective energy change [hartree]                            -0.0000090474
 OPT| Predicted energy change [hartree]                            -0.0000070894
 OPT| Scaling factor                                                0.7797712553
 OPT| Step size                                                     0.1554386240
 OPT| Trust radius                                                  0.3779452266
 OPT| Decrease in energy                                                     YES
 OPT| Used time [s]                                                       28.711
 OPT|
 OPT| Maximum step size                                             0.1554386240
 OPT| Convergence limit for maximum step size                       0.0030000000
 OPT| Maximum step size is converged                                          NO
 OPT|
 OPT| RMS step size                                                 0.0157558102
 OPT| Convergence limit for RMS step size                           0.0015000000
 OPT| RMS step size is converged                                              NO
 OPT|
 OPT| Maximum gradient                                              0.0008847388
 OPT| Convergence limit for maximum gradient                        0.0004500000
 OPT| Maximum gradient is converged                                           NO
 OPT|
 OPT| RMS gradient                                                  0.0001424166
 OPT| Convergence limit for RMS gradient                            0.0003000000
 OPT| RMS gradient is converged                                              YES
 OPT| **************************************************************************
 OPT| Estimated peak process memory after this step [MiB]                    716

 --------------------------
 OPTIMIZATION STEP:     94
 --------------------------

 *** WARNING in fm/cp_fm_elpa.F:521 :: Setting real_kernel for ELPA failed ***


 Number of electrons:                                                        218
 Number of occupied orbitals:                                                109
 Number of molecular orbitals:                                               146

 Number of orbital functions:                                                723
 Number of independent orbital functions:                                    723

 *** WARNING in fm/cp_fm_elpa.F:521 :: Setting real_kernel for ELPA failed ***


 Extrapolation method: ASPC


 SCF WAVEFUNCTION OPTIMIZATION

  Step     Update method      Time    Convergence         Total energy    Change
  ------------------------------------------------------------------------------

 *** WARNING in fm/cp_fm_elpa.F:521 :: Setting real_kernel for ELPA failed ***

     1 Broy./Diag. 0.40E+00    1.1     0.00805957      -322.3498535778 -3.22E+02

 *** WARNING in fm/cp_fm_elpa.F:521 :: Setting real_kernel for ELPA failed ***

     2 Broy./Diag. 0.40E+00    1.5     0.00238222      -322.3344269091  1.54E-02

 *** WARNING in fm/cp_fm_elpa.F:521 :: Setting real_kernel for ELPA failed ***

     3 Broy./Diag. 0.40E+00    1.6     0.00109062      -322.3482417273 -1.38E-02

 *** WARNING in fm/cp_fm_elpa.F:521 :: Setting real_kernel for ELPA failed ***

     4 Broy./Diag. 0.40E+00    1.6     0.00042376      -322.3496677016 -1.43E-03

 *** WARNING in fm/cp_fm_elpa.F:521 :: Setting real_kernel for ELPA failed ***

     5 Broy./Diag. 0.40E+00    1.6     0.00004966      -322.3513183159 -1.65E-03

 *** WARNING in fm/cp_fm_elpa.F:521 :: Setting real_kernel for ELPA failed ***

     6 Broy./Diag. 0.40E+00    1.6     0.00003430      -322.3504342782  8.84E-04

 *** WARNING in fm/cp_fm_elpa.F:521 :: Setting real_kernel for ELPA failed ***

     7 Broy./Diag. 0.40E+00    1.7     0.00001893      -322.3504132754  2.10E-05

 *** WARNING in fm/cp_fm_elpa.F:521 :: Setting real_kernel for ELPA failed ***

     8 Broy./Diag. 0.40E+00    1.7     0.00002186      -322.3504947720 -8.15E-05

 *** WARNING in fm/cp_fm_elpa.F:521 :: Setting real_kernel for ELPA failed ***

     9 Broy./Diag. 0.40E+00    1.7     0.00001184      -322.3505774535 -8.27E-05

 *** WARNING in fm/cp_fm_elpa.F:521 :: Setting real_kernel for ELPA failed ***

    10 Broy./Diag. 0.40E+00    1.8     0.00001010      -322.3505657955  1.17E-05

 *** WARNING in fm/cp_fm_elpa.F:521 :: Setting real_kernel for ELPA failed ***

    11 Broy./Diag. 0.40E+00    1.8     0.00000622      -322.3505809398 -1.51E-05

 *** WARNING in fm/cp_fm_elpa.F:521 :: Setting real_kernel for ELPA failed ***

    12 Broy./Diag. 0.40E+00    1.8     0.00000478      -322.3506120180 -3.11E-05

 *** WARNING in fm/cp_fm_elpa.F:521 :: Setting real_kernel for ELPA failed ***

    13 Broy./Diag. 0.40E+00    1.8     0.00000275      -322.3506115771  4.41E-07

 *** WARNING in fm/cp_fm_elpa.F:521 :: Setting real_kernel for ELPA failed ***

    14 Broy./Diag. 0.40E+00    1.8     0.00000136      -322.3506057733  5.80E-06

 *** WARNING in fm/cp_fm_elpa.F:521 :: Setting real_kernel for ELPA failed ***

    15 Broy./Diag. 0.40E+00    1.8     0.00000102      -322.3506035538  2.22E-06

 *** WARNING in fm/cp_fm_elpa.F:521 :: Setting real_kernel for ELPA failed ***

    16 Broy./Diag. 0.40E+00    1.8     0.00000050      -322.3506030448  5.09E-07

  *** SCF run converged in    16 steps ***


  Electronic density on regular grids:       -217.9999999988        0.0000000012
  Core density on regular grids:              219.9999999998       -0.0000000002
  Total charge density on r-space grids:        2.0000000011
  Total charge density g-space grids:           2.0000000011

  Overlap energy of the core charge distribution:               0.00001408194900
  Self energy of the core charge distribution:               -766.83425392616255
  Core Hamiltonian energy:                                    231.14414973393878
  Hartree energy:                                             308.92364966928704
  Exchange-correlation energy:                                -95.46684923079241
  Dispersion energy:                                           -0.11731337306125
  Electronic entropic energy:                                  -0.00000000000000
  Fermi energy:                                                -0.26371577841323

  Total energy:                                              -322.35060304484148

 ENERGY| Total FORCE_EVAL ( QS ) energy [hartree]           -322.350595019363709

 OPT| **************************************************************************
 OPT| Step number                                                             94
 OPT| Optimization method                                                   BFGS
 OPT| Total energy [hartree]                                     -322.3505950194
 OPT| Effective energy change [hartree]                            -0.0000045715
 OPT| Predicted energy change [hartree]                            -0.0000064273
 OPT| Scaling factor                                                0.7797712553
 OPT| Step size                                                     0.1644255696
 OPT| Trust radius                                                  0.3779452266
 OPT| Decrease in energy                                                     YES
 OPT| Used time [s]                                                       28.761
 OPT|
 OPT| Maximum step size                                             0.1644255696
 OPT| Convergence limit for maximum step size                       0.0030000000
 OPT| Maximum step size is converged                                          NO
 OPT|
 OPT| RMS step size                                                 0.0179086175
 OPT| Convergence limit for RMS step size                           0.0015000000
 OPT| RMS step size is converged                                              NO
 OPT|
 OPT| Maximum gradient                                              0.0009884432
 OPT| Convergence limit for maximum gradient                        0.0004500000
 OPT| Maximum gradient is converged                                           NO
 OPT|
 OPT| RMS gradient                                                  0.0001902314
 OPT| Convergence limit for RMS gradient                            0.0003000000
 OPT| RMS gradient is converged                                              YES
 OPT| **************************************************************************
 OPT| Estimated peak process memory after this step [MiB]                    716

 --------------------------
 OPTIMIZATION STEP:     95
 --------------------------

 *** WARNING in fm/cp_fm_elpa.F:521 :: Setting real_kernel for ELPA failed ***


 Number of electrons:                                                        218
 Number of occupied orbitals:                                                109
 Number of molecular orbitals:                                               146

 Number of orbital functions:                                                723
 Number of independent orbital functions:                                    723

 *** WARNING in fm/cp_fm_elpa.F:521 :: Setting real_kernel for ELPA failed ***


 Extrapolation method: ASPC


 SCF WAVEFUNCTION OPTIMIZATION

  Step     Update method      Time    Convergence         Total energy    Change
  ------------------------------------------------------------------------------

 *** WARNING in fm/cp_fm_elpa.F:521 :: Setting real_kernel for ELPA failed ***

     1 Broy./Diag. 0.40E+00    1.1     0.00663641      -322.3502442790 -3.22E+02

 *** WARNING in fm/cp_fm_elpa.F:521 :: Setting real_kernel for ELPA failed ***

     2 Broy./Diag. 0.40E+00    1.6     0.00090072      -322.3500708068  1.73E-04

 *** WARNING in fm/cp_fm_elpa.F:521 :: Setting real_kernel for ELPA failed ***

     3 Broy./Diag. 0.40E+00    1.6     0.00035100      -322.3496912156  3.80E-04

 *** WARNING in fm/cp_fm_elpa.F:521 :: Setting real_kernel for ELPA failed ***

     4 Broy./Diag. 0.40E+00    1.6     0.00028219      -322.3502484319 -5.57E-04

 *** WARNING in fm/cp_fm_elpa.F:521 :: Setting real_kernel for ELPA failed ***

     5 Broy./Diag. 0.40E+00    1.6     0.00007258      -322.3500364356  2.12E-04

 *** WARNING in fm/cp_fm_elpa.F:521 :: Setting real_kernel for ELPA failed ***

     6 Broy./Diag. 0.40E+00    1.6     0.00004991      -322.3502571560 -2.21E-04

 *** WARNING in fm/cp_fm_elpa.F:521 :: Setting real_kernel for ELPA failed ***

     7 Broy./Diag. 0.40E+00    1.7     0.00002738      -322.3504156235 -1.58E-04

 *** WARNING in fm/cp_fm_elpa.F:521 :: Setting real_kernel for ELPA failed ***

     8 Broy./Diag. 0.40E+00    1.7     0.00002028      -322.3505823196 -1.67E-04

 *** WARNING in fm/cp_fm_elpa.F:521 :: Setting real_kernel for ELPA failed ***

     9 Broy./Diag. 0.40E+00    1.7     0.00001751      -322.3505983229 -1.60E-05

 *** WARNING in fm/cp_fm_elpa.F:521 :: Setting real_kernel for ELPA failed ***

    10 Broy./Diag. 0.40E+00    1.8     0.00001355      -322.3505988145 -4.92E-07

 *** WARNING in fm/cp_fm_elpa.F:521 :: Setting real_kernel for ELPA failed ***

    11 Broy./Diag. 0.40E+00    1.8     0.00000604      -322.3505899444  8.87E-06

 *** WARNING in fm/cp_fm_elpa.F:521 :: Setting real_kernel for ELPA failed ***

    12 Broy./Diag. 0.40E+00    1.8     0.00000327      -322.3506065555 -1.66E-05

 *** WARNING in fm/cp_fm_elpa.F:521 :: Setting real_kernel for ELPA failed ***

    13 Broy./Diag. 0.40E+00    1.8     0.00000222      -322.3506024133  4.14E-06

 *** WARNING in fm/cp_fm_elpa.F:521 :: Setting real_kernel for ELPA failed ***

    14 Broy./Diag. 0.40E+00    1.8     0.00000167      -322.3505974235  4.99E-06

 *** WARNING in fm/cp_fm_elpa.F:521 :: Setting real_kernel for ELPA failed ***

    15 Broy./Diag. 0.40E+00    1.8     0.00000095      -322.3505973353  8.82E-08

  *** SCF run converged in    15 steps ***


  Electronic density on regular grids:       -217.9999999988        0.0000000012
  Core density on regular grids:              219.9999999998       -0.0000000002
  Total charge density on r-space grids:        2.0000000011
  Total charge density g-space grids:           2.0000000011

  Overlap energy of the core charge distribution:               0.00001409862253
  Self energy of the core charge distribution:               -766.83425392616255
  Core Hamiltonian energy:                                    231.14822843817026
  Hartree energy:                                             308.92081339628976
  Exchange-correlation energy:                                -95.46809515834363
  Dispersion energy:                                           -0.11730418388962
  Electronic entropic energy:                                  -0.00000000000000
  Fermi energy:                                                -0.26380729543503

  Total energy:                                              -322.35059733531335

 ENERGY| Total FORCE_EVAL ( QS ) energy [hartree]           -322.350607463752056

 OPT| **************************************************************************
 OPT| Step number                                                             95
 OPT| Optimization method                                                   BFGS
 OPT| Total energy [hartree]                                     -322.3506074638
 OPT| Effective energy change [hartree]                            -0.0000124444
 OPT| Predicted energy change [hartree]                            -0.0000094703
 OPT| Scaling factor                                                0.7797712553
 OPT| Step size                                                     0.0747579708
 OPT| Trust radius                                                  0.3779452266
 OPT| Decrease in energy                                                     YES
 OPT| Used time [s]                                                       27.099
 OPT|
 OPT| Maximum step size                                             0.0747579708
 OPT| Convergence limit for maximum step size                       0.0030000000
 OPT| Maximum step size is converged                                          NO
 OPT|
 OPT| RMS step size                                                 0.0073265024
 OPT| Convergence limit for RMS step size                           0.0015000000
 OPT| RMS step size is converged                                              NO
 OPT|
 OPT| Maximum gradient                                              0.0009732891
 OPT| Convergence limit for maximum gradient                        0.0004500000
 OPT| Maximum gradient is converged                                           NO
 OPT|
 OPT| RMS gradient                                                  0.0001397768
 OPT| Convergence limit for RMS gradient                            0.0003000000
 OPT| RMS gradient is converged                                              YES
 OPT| **************************************************************************
 OPT| Estimated peak process memory after this step [MiB]                    716

 --------------------------
 OPTIMIZATION STEP:     96
 --------------------------

 *** WARNING in fm/cp_fm_elpa.F:521 :: Setting real_kernel for ELPA failed ***


 Number of electrons:                                                        218
 Number of occupied orbitals:                                                109
 Number of molecular orbitals:                                               146

 Number of orbital functions:                                                723
 Number of independent orbital functions:                                    723

 *** WARNING in fm/cp_fm_elpa.F:521 :: Setting real_kernel for ELPA failed ***


 Extrapolation method: ASPC


 SCF WAVEFUNCTION OPTIMIZATION

  Step     Update method      Time    Convergence         Total energy    Change
  ------------------------------------------------------------------------------

 *** WARNING in fm/cp_fm_elpa.F:521 :: Setting real_kernel for ELPA failed ***

     1 Broy./Diag. 0.40E+00    1.1     0.00772347      -322.3499127780 -3.22E+02

 *** WARNING in fm/cp_fm_elpa.F:521 :: Setting real_kernel for ELPA failed ***

     2 Broy./Diag. 0.40E+00    1.5     0.00191087      -322.3653780146 -1.55E-02

 *** WARNING in fm/cp_fm_elpa.F:521 :: Setting real_kernel for ELPA failed ***

     3 Broy./Diag. 0.40E+00    1.6     0.00079742      -322.3541943277  1.12E-02

 *** WARNING in fm/cp_fm_elpa.F:521 :: Setting real_kernel for ELPA failed ***

     4 Broy./Diag. 0.40E+00    1.6     0.00030729      -322.3521419799  2.05E-03

 *** WARNING in fm/cp_fm_elpa.F:521 :: Setting real_kernel for ELPA failed ***

     5 Broy./Diag. 0.40E+00    1.6     0.00007404      -322.3509600876  1.18E-03

 *** WARNING in fm/cp_fm_elpa.F:521 :: Setting real_kernel for ELPA failed ***

     6 Broy./Diag. 0.40E+00    1.6     0.00002742      -322.3514763207 -5.16E-04

 *** WARNING in fm/cp_fm_elpa.F:521 :: Setting real_kernel for ELPA failed ***

     7 Broy./Diag. 0.40E+00    1.7     0.00004281      -322.3511408469  3.35E-04

 *** WARNING in fm/cp_fm_elpa.F:521 :: Setting real_kernel for ELPA failed ***

     8 Broy./Diag. 0.40E+00    1.7     0.00001692      -322.3508183989  3.22E-04

 *** WARNING in fm/cp_fm_elpa.F:521 :: Setting real_kernel for ELPA failed ***

     9 Broy./Diag. 0.40E+00    1.7     0.00001539      -322.3506688209  1.50E-04

 *** WARNING in fm/cp_fm_elpa.F:521 :: Setting real_kernel for ELPA failed ***

    10 Broy./Diag. 0.40E+00    1.8     0.00001436      -322.3506720577 -3.24E-06

 *** WARNING in fm/cp_fm_elpa.F:521 :: Setting real_kernel for ELPA failed ***

    11 Broy./Diag. 0.40E+00    1.8     0.00001034      -322.3506375406  3.45E-05

 *** WARNING in fm/cp_fm_elpa.F:521 :: Setting real_kernel for ELPA failed ***

    12 Broy./Diag. 0.40E+00    1.8     0.00000332      -322.3506134602  2.41E-05

 *** WARNING in fm/cp_fm_elpa.F:521 :: Setting real_kernel for ELPA failed ***

    13 Broy./Diag. 0.40E+00    1.8     0.00000256      -322.3506172663 -3.81E-06

 *** WARNING in fm/cp_fm_elpa.F:521 :: Setting real_kernel for ELPA failed ***

    14 Broy./Diag. 0.40E+00    1.8     0.00000254      -322.3506259308 -8.66E-06

 *** WARNING in fm/cp_fm_elpa.F:521 :: Setting real_kernel for ELPA failed ***

    15 Broy./Diag. 0.40E+00    1.8     0.00000148      -322.3506274666 -1.54E-06

 *** WARNING in fm/cp_fm_elpa.F:521 :: Setting real_kernel for ELPA failed ***

    16 Broy./Diag. 0.40E+00    1.8     0.00000074      -322.3506246208  2.85E-06

  *** SCF run converged in    16 steps ***


  Electronic density on regular grids:       -217.9999999988        0.0000000012
  Core density on regular grids:              219.9999999998       -0.0000000002
  Total charge density on r-space grids:        2.0000000011
  Total charge density g-space grids:           2.0000000011

  Overlap energy of the core charge distribution:               0.00001410639567
  Self energy of the core charge distribution:               -766.83425392616255
  Core Hamiltonian energy:                                    231.14972592919975
  Hartree energy:                                             308.91970342116724
  Exchange-correlation energy:                                -95.46850553364339
  Dispersion energy:                                           -0.11730861779388
  Electronic entropic energy:                                  -0.00000000000000
  Fermi energy:                                                -0.26380171424912

  Total energy:                                              -322.35062462083715

 ENERGY| Total FORCE_EVAL ( QS ) energy [hartree]           -322.350620901533205

 OPT| **************************************************************************
 OPT| Step number                                                             96
 OPT| Optimization method                                                   BFGS
 OPT| Total energy [hartree]                                     -322.3506209015
 OPT| Effective energy change [hartree]                            -0.0000134378
 OPT| Predicted energy change [hartree]                            -0.0000108232
 OPT| Scaling factor                                                0.7797712553
 OPT| Step size                                                     0.0433284568
 OPT| Trust radius                                                  0.3779452266
 OPT| Decrease in energy                                                     YES
 OPT| Used time [s]                                                       28.792
 OPT|
 OPT| Maximum step size                                             0.0433284568
 OPT| Convergence limit for maximum step size                       0.0030000000
 OPT| Maximum step size is converged                                          NO
 OPT|
 OPT| RMS step size                                                 0.0065869840
 OPT| Convergence limit for RMS step size                           0.0015000000
 OPT| RMS step size is converged                                              NO
 OPT|
 OPT| Maximum gradient                                              0.0005624621
 OPT| Convergence limit for maximum gradient                        0.0004500000
 OPT| Maximum gradient is converged                                           NO
 OPT|
 OPT| RMS gradient                                                  0.0001167187
 OPT| Convergence limit for RMS gradient                            0.0003000000
 OPT| RMS gradient is converged                                              YES
 OPT| **************************************************************************
 OPT| Estimated peak process memory after this step [MiB]                    716

 --------------------------
 OPTIMIZATION STEP:     97
 --------------------------

 *** WARNING in fm/cp_fm_elpa.F:521 :: Setting real_kernel for ELPA failed ***


 Number of electrons:                                                        218
 Number of occupied orbitals:                                                109
 Number of molecular orbitals:                                               146

 Number of orbital functions:                                                723
 Number of independent orbital functions:                                    723

 *** WARNING in fm/cp_fm_elpa.F:521 :: Setting real_kernel for ELPA failed ***


 Extrapolation method: ASPC


 SCF WAVEFUNCTION OPTIMIZATION

  Step     Update method      Time    Convergence         Total energy    Change
  ------------------------------------------------------------------------------

 *** WARNING in fm/cp_fm_elpa.F:521 :: Setting real_kernel for ELPA failed ***

     1 Broy./Diag. 0.40E+00    1.1     0.00480374      -322.3502987176 -3.22E+02

 *** WARNING in fm/cp_fm_elpa.F:521 :: Setting real_kernel for ELPA failed ***

     2 Broy./Diag. 0.40E+00    1.5     0.00105448      -322.3457492993  4.55E-03

 *** WARNING in fm/cp_fm_elpa.F:521 :: Setting real_kernel for ELPA failed ***

     3 Broy./Diag. 0.40E+00    1.6     0.00037072      -322.3496501930 -3.90E-03

 *** WARNING in fm/cp_fm_elpa.F:521 :: Setting real_kernel for ELPA failed ***

     4 Broy./Diag. 0.40E+00    1.6     0.00018828      -322.3499364755 -2.86E-04

 *** WARNING in fm/cp_fm_elpa.F:521 :: Setting real_kernel for ELPA failed ***

     5 Broy./Diag. 0.40E+00    1.6     0.00005943      -322.3504787384 -5.42E-04

 *** WARNING in fm/cp_fm_elpa.F:521 :: Setting real_kernel for ELPA failed ***

     6 Broy./Diag. 0.40E+00    1.6     0.00001644      -322.3502424863  2.36E-04

 *** WARNING in fm/cp_fm_elpa.F:521 :: Setting real_kernel for ELPA failed ***

     7 Broy./Diag. 0.40E+00    1.7     0.00002061      -322.3503996768 -1.57E-04

 *** WARNING in fm/cp_fm_elpa.F:521 :: Setting real_kernel for ELPA failed ***

     8 Broy./Diag. 0.40E+00    1.7     0.00001054      -322.3505373482 -1.38E-04

 *** WARNING in fm/cp_fm_elpa.F:521 :: Setting real_kernel for ELPA failed ***

     9 Broy./Diag. 0.40E+00    1.7     0.00000936      -322.3506116435 -7.43E-05

 *** WARNING in fm/cp_fm_elpa.F:521 :: Setting real_kernel for ELPA failed ***

    10 Broy./Diag. 0.40E+00    1.8     0.00000847      -322.3506029989  8.64E-06

 *** WARNING in fm/cp_fm_elpa.F:521 :: Setting real_kernel for ELPA failed ***

    11 Broy./Diag. 0.40E+00    1.8     0.00000513      -322.3506198874 -1.69E-05

 *** WARNING in fm/cp_fm_elpa.F:521 :: Setting real_kernel for ELPA failed ***

    12 Broy./Diag. 0.40E+00    1.8     0.00000215      -322.3506333512 -1.35E-05

 *** WARNING in fm/cp_fm_elpa.F:521 :: Setting real_kernel for ELPA failed ***

    13 Broy./Diag. 0.40E+00    1.8     0.00000166      -322.3506291321  4.22E-06

 *** WARNING in fm/cp_fm_elpa.F:521 :: Setting real_kernel for ELPA failed ***

    14 Broy./Diag. 0.40E+00    1.8     0.00000105      -322.3506214107  7.72E-06

 *** WARNING in fm/cp_fm_elpa.F:521 :: Setting real_kernel for ELPA failed ***

    15 Broy./Diag. 0.40E+00    1.8     0.00000083      -322.3506197138  1.70E-06

  *** SCF run converged in    15 steps ***


  Electronic density on regular grids:       -217.9999999988        0.0000000012
  Core density on regular grids:              219.9999999998       -0.0000000002
  Total charge density on r-space grids:        2.0000000011
  Total charge density g-space grids:           2.0000000011

  Overlap energy of the core charge distribution:               0.00001410506958
  Self energy of the core charge distribution:               -766.83425392616255
  Core Hamiltonian energy:                                    231.15030212163637
  Hartree energy:                                             308.91927515628095
  Exchange-correlation energy:                                -95.46864269899311
  Dispersion energy:                                           -0.11731447161609
  Electronic entropic energy:                                  -0.00000000000000
  Fermi energy:                                                -0.26381711700366

  Total energy:                                              -322.35061971378485

 ENERGY| Total FORCE_EVAL ( QS ) energy [hartree]           -322.350625755410363

 OPT| **************************************************************************
 OPT| Step number                                                             97
 OPT| Optimization method                                                   BFGS
 OPT| Total energy [hartree]                                     -322.3506257554
 OPT| Effective energy change [hartree]                            -0.0000048539
 OPT| Predicted energy change [hartree]                            -0.0000034910
 OPT| Scaling factor                                                0.7797712553
 OPT| Step size                                                     0.0117531057
 OPT| Trust radius                                                  0.3779452266
 OPT| Decrease in energy                                                     YES
 OPT| Used time [s]                                                       27.020
 OPT|
 OPT| Maximum step size                                             0.0117531057
 OPT| Convergence limit for maximum step size                       0.0030000000
 OPT| Maximum step size is converged                                          NO
 OPT|
 OPT| RMS step size                                                 0.0024206329
 OPT| Convergence limit for RMS step size                           0.0015000000
 OPT| RMS step size is converged                                              NO
 OPT|
 OPT| Maximum gradient                                              0.0003956803
 OPT| Convergence limit for maximum gradient                        0.0004500000
 OPT| Maximum gradient is converged                                          YES
 OPT|
 OPT| RMS gradient                                                  0.0001050299
 OPT| Convergence limit for RMS gradient                            0.0003000000
 OPT| RMS gradient is converged                                              YES
 OPT| **************************************************************************
 OPT| Estimated peak process memory after this step [MiB]                    716

 --------------------------
 OPTIMIZATION STEP:     98
 --------------------------

 *** WARNING in fm/cp_fm_elpa.F:521 :: Setting real_kernel for ELPA failed ***


 Number of electrons:                                                        218
 Number of occupied orbitals:                                                109
 Number of molecular orbitals:                                               146

 Number of orbital functions:                                                723
 Number of independent orbital functions:                                    723

 *** WARNING in fm/cp_fm_elpa.F:521 :: Setting real_kernel for ELPA failed ***


 Extrapolation method: ASPC


 SCF WAVEFUNCTION OPTIMIZATION

  Step     Update method      Time    Convergence         Total energy    Change
  ------------------------------------------------------------------------------

 *** WARNING in fm/cp_fm_elpa.F:521 :: Setting real_kernel for ELPA failed ***

     1 Broy./Diag. 0.40E+00    1.1     0.00245191      -322.3505643273 -3.22E+02

 *** WARNING in fm/cp_fm_elpa.F:521 :: Setting real_kernel for ELPA failed ***

     2 Broy./Diag. 0.40E+00    1.5     0.00045731      -322.3529841306 -2.42E-03

 *** WARNING in fm/cp_fm_elpa.F:521 :: Setting real_kernel for ELPA failed ***

     3 Broy./Diag. 0.40E+00    1.6     0.00018922      -322.3510002411  1.98E-03

 *** WARNING in fm/cp_fm_elpa.F:521 :: Setting real_kernel for ELPA failed ***

     4 Broy./Diag. 0.40E+00    1.6     0.00011729      -322.3508408020  1.59E-04

 *** WARNING in fm/cp_fm_elpa.F:521 :: Setting real_kernel for ELPA failed ***

     5 Broy./Diag. 0.40E+00    1.6     0.00003033      -322.3506491273  1.92E-04

 *** WARNING in fm/cp_fm_elpa.F:521 :: Setting real_kernel for ELPA failed ***

     6 Broy./Diag. 0.40E+00    1.6     0.00000565      -322.3507789506 -1.30E-04

 *** WARNING in fm/cp_fm_elpa.F:521 :: Setting real_kernel for ELPA failed ***

     7 Broy./Diag. 0.40E+00    1.7     0.00000693      -322.3507184845  6.05E-05

 *** WARNING in fm/cp_fm_elpa.F:521 :: Setting real_kernel for ELPA failed ***

     8 Broy./Diag. 0.40E+00    1.7     0.00000446      -322.3506573480  6.11E-05

 *** WARNING in fm/cp_fm_elpa.F:521 :: Setting real_kernel for ELPA failed ***

     9 Broy./Diag. 0.40E+00    1.7     0.00000413      -322.3506319927  2.54E-05

 *** WARNING in fm/cp_fm_elpa.F:521 :: Setting real_kernel for ELPA failed ***

    10 Broy./Diag. 0.40E+00    1.8     0.00000289      -322.3506395244 -7.53E-06

 *** WARNING in fm/cp_fm_elpa.F:521 :: Setting real_kernel for ELPA failed ***

    11 Broy./Diag. 0.40E+00    1.8     0.00000161      -322.3506349718  4.55E-06

 *** WARNING in fm/cp_fm_elpa.F:521 :: Setting real_kernel for ELPA failed ***

    12 Broy./Diag. 0.40E+00    1.8     0.00000070      -322.3506285378  6.43E-06

  *** SCF run converged in    12 steps ***


  Electronic density on regular grids:       -217.9999999988        0.0000000012
  Core density on regular grids:              219.9999999998       -0.0000000002
  Total charge density on r-space grids:        2.0000000011
  Total charge density g-space grids:           2.0000000011

  Overlap energy of the core charge distribution:               0.00001410773631
  Self energy of the core charge distribution:               -766.83425392616255
  Core Hamiltonian energy:                                    231.15195829002624
  Hartree energy:                                             308.91807693187718
  Exchange-correlation energy:                                -95.46910398048922
  Dispersion energy:                                           -0.11731996082183
  Electronic entropic energy:                                  -0.00000000000000
  Fermi energy:                                                -0.26381971373025

  Total energy:                                              -322.35062853783376

 ENERGY| Total FORCE_EVAL ( QS ) energy [hartree]           -322.350630559079832

 OPT| **************************************************************************
 OPT| Step number                                                             98
 OPT| Optimization method                                                   BFGS
 OPT| Total energy [hartree]                                     -322.3506305591
 OPT| Effective energy change [hartree]                            -0.0000048037
 OPT| Predicted energy change [hartree]                            -0.0000033254
 OPT| Scaling factor                                                0.7797712553
 OPT| Step size                                                     0.0100355230
 OPT| Trust radius                                                  0.3779452266
 OPT| Decrease in energy                                                     YES
 OPT| Used time [s]                                                       21.712
 OPT|
 OPT| Maximum step size                                             0.0100355230
 OPT| Convergence limit for maximum step size                       0.0030000000
 OPT| Maximum step size is converged                                          NO
 OPT|
 OPT| RMS step size                                                 0.0021985043
 OPT| Convergence limit for RMS step size                           0.0015000000
 OPT| RMS step size is converged                                              NO
 OPT|
 OPT| Maximum gradient                                              0.0003670629
 OPT| Convergence limit for maximum gradient                        0.0004500000
 OPT| Maximum gradient is converged                                          YES
 OPT|
 OPT| RMS gradient                                                  0.0000980499
 OPT| Convergence limit for RMS gradient                            0.0003000000
 OPT| RMS gradient is converged                                              YES
 OPT| **************************************************************************
 OPT| Estimated peak process memory after this step [MiB]                    716

 --------------------------
 OPTIMIZATION STEP:     99
 --------------------------

 *** WARNING in fm/cp_fm_elpa.F:521 :: Setting real_kernel for ELPA failed ***


 Number of electrons:                                                        218
 Number of occupied orbitals:                                                109
 Number of molecular orbitals:                                               146

 Number of orbital functions:                                                723
 Number of independent orbital functions:                                    723

 *** WARNING in fm/cp_fm_elpa.F:521 :: Setting real_kernel for ELPA failed ***


 Extrapolation method: ASPC


 SCF WAVEFUNCTION OPTIMIZATION

  Step     Update method      Time    Convergence         Total energy    Change
  ------------------------------------------------------------------------------

 *** WARNING in fm/cp_fm_elpa.F:521 :: Setting real_kernel for ELPA failed ***

     1 Broy./Diag. 0.40E+00    1.1     0.00115004      -322.3506135568 -3.22E+02

 *** WARNING in fm/cp_fm_elpa.F:521 :: Setting real_kernel for ELPA failed ***

     2 Broy./Diag. 0.40E+00    1.5     0.00025000      -322.3521294954 -1.52E-03

 *** WARNING in fm/cp_fm_elpa.F:521 :: Setting real_kernel for ELPA failed ***

     3 Broy./Diag. 0.40E+00    1.6     0.00009062      -322.3507998057  1.33E-03

 *** WARNING in fm/cp_fm_elpa.F:521 :: Setting real_kernel for ELPA failed ***

     4 Broy./Diag. 0.40E+00    1.6     0.00007039      -322.3505906079  2.09E-04

 *** WARNING in fm/cp_fm_elpa.F:521 :: Setting real_kernel for ELPA failed ***

     5 Broy./Diag. 0.40E+00    1.6     0.00001803      -322.3505037198  8.69E-05

 *** WARNING in fm/cp_fm_elpa.F:521 :: Setting real_kernel for ELPA failed ***

     6 Broy./Diag. 0.40E+00    1.6     0.00001231      -322.3506002385 -9.65E-05

 *** WARNING in fm/cp_fm_elpa.F:521 :: Setting real_kernel for ELPA failed ***

     7 Broy./Diag. 0.40E+00    1.7     0.00000516      -322.3506165558 -1.63E-05

 *** WARNING in fm/cp_fm_elpa.F:521 :: Setting real_kernel for ELPA failed ***

     8 Broy./Diag. 0.40E+00    1.7     0.00000478      -322.3506297427 -1.32E-05

 *** WARNING in fm/cp_fm_elpa.F:521 :: Setting real_kernel for ELPA failed ***

     9 Broy./Diag. 0.40E+00    1.7     0.00000428      -322.3506345629 -4.82E-06

 *** WARNING in fm/cp_fm_elpa.F:521 :: Setting real_kernel for ELPA failed ***

    10 Broy./Diag. 0.40E+00    1.8     0.00000374      -322.3506373376 -2.77E-06

 *** WARNING in fm/cp_fm_elpa.F:521 :: Setting real_kernel for ELPA failed ***

    11 Broy./Diag. 0.40E+00    1.8     0.00000144      -322.3506357531  1.58E-06

 *** WARNING in fm/cp_fm_elpa.F:521 :: Setting real_kernel for ELPA failed ***

    12 Broy./Diag. 0.40E+00    1.8     0.00000079      -322.3506366454 -8.92E-07

  *** SCF run converged in    12 steps ***


  Electronic density on regular grids:       -217.9999999988        0.0000000012
  Core density on regular grids:              219.9999999998       -0.0000000002
  Total charge density on r-space grids:        2.0000000011
  Total charge density g-space grids:           2.0000000011

  Overlap energy of the core charge distribution:               0.00001411652905
  Self energy of the core charge distribution:               -766.83425392616255
  Core Hamiltonian energy:                                    231.15513010676949
  Hartree energy:                                             308.91580574064722
  Exchange-correlation energy:                                -95.47001028585368
  Dispersion energy:                                           -0.11732239728251
  Electronic entropic energy:                                  -0.00000000000000
  Fermi energy:                                                -0.26382939381619

  Total energy:                                              -322.35063664535301

 ENERGY| Total FORCE_EVAL ( QS ) energy [hartree]           -322.350637469855258

 OPT| **************************************************************************
 OPT| Step number                                                             99
 OPT| Optimization method                                                   BFGS
 OPT| Total energy [hartree]                                     -322.3506374699
 OPT| Effective energy change [hartree]                            -0.0000069108
 OPT| Predicted energy change [hartree]                            -0.0000047189
 OPT| Scaling factor                                                0.7797712553
 OPT| Step size                                                     0.0195585729
 OPT| Trust radius                                                  0.3779452266
 OPT| Decrease in energy                                                     YES
 OPT| Used time [s]                                                       21.722
 OPT|
 OPT| Maximum step size                                             0.0195585729
 OPT| Convergence limit for maximum step size                       0.0030000000
 OPT| Maximum step size is converged                                          NO
 OPT|
 OPT| RMS step size                                                 0.0023114118
 OPT| Convergence limit for RMS step size                           0.0015000000
 OPT| RMS step size is converged                                              NO
 OPT|
 OPT| Maximum gradient                                              0.0004172324
 OPT| Convergence limit for maximum gradient                        0.0004500000
 OPT| Maximum gradient is converged                                          YES
 OPT|
 OPT| RMS gradient                                                  0.0001045660
 OPT| Convergence limit for RMS gradient                            0.0003000000
 OPT| RMS gradient is converged                                              YES
 OPT| **************************************************************************
 OPT| Estimated peak process memory after this step [MiB]                    716

 --------------------------
 OPTIMIZATION STEP:    100
 --------------------------

 *** WARNING in fm/cp_fm_elpa.F:521 :: Setting real_kernel for ELPA failed ***


 Number of electrons:                                                        218
 Number of occupied orbitals:                                                109
 Number of molecular orbitals:                                               146

 Number of orbital functions:                                                723
 Number of independent orbital functions:                                    723

 *** WARNING in fm/cp_fm_elpa.F:521 :: Setting real_kernel for ELPA failed ***


 Extrapolation method: ASPC


 SCF WAVEFUNCTION OPTIMIZATION

  Step     Update method      Time    Convergence         Total energy    Change
  ------------------------------------------------------------------------------

 *** WARNING in fm/cp_fm_elpa.F:521 :: Setting real_kernel for ELPA failed ***

     1 Broy./Diag. 0.40E+00    1.1     0.00120865      -322.3506220403 -3.22E+02

 *** WARNING in fm/cp_fm_elpa.F:521 :: Setting real_kernel for ELPA failed ***

     2 Broy./Diag. 0.40E+00    1.5     0.00052727      -322.3537080690 -3.09E-03

 *** WARNING in fm/cp_fm_elpa.F:521 :: Setting real_kernel for ELPA failed ***

     3 Broy./Diag. 0.40E+00    1.6     0.00021948      -322.3510847915  2.62E-03

 *** WARNING in fm/cp_fm_elpa.F:521 :: Setting real_kernel for ELPA failed ***

     4 Broy./Diag. 0.40E+00    1.6     0.00011555      -322.3507759264  3.09E-04

 *** WARNING in fm/cp_fm_elpa.F:521 :: Setting real_kernel for ELPA failed ***

     5 Broy./Diag. 0.40E+00    1.6     0.00001550      -322.3505041513  2.72E-04

 *** WARNING in fm/cp_fm_elpa.F:521 :: Setting real_kernel for ELPA failed ***

     6 Broy./Diag. 0.40E+00    1.6     0.00000462      -322.3506475821 -1.43E-04

 *** WARNING in fm/cp_fm_elpa.F:521 :: Setting real_kernel for ELPA failed ***

     7 Broy./Diag. 0.40E+00    1.7     0.00000271      -322.3506602920 -1.27E-05

 *** WARNING in fm/cp_fm_elpa.F:521 :: Setting real_kernel for ELPA failed ***

     8 Broy./Diag. 0.40E+00    1.7     0.00000300      -322.3506500572  1.02E-05

 *** WARNING in fm/cp_fm_elpa.F:521 :: Setting real_kernel for ELPA failed ***

     9 Broy./Diag. 0.40E+00    1.7     0.00000204      -322.3506417598  8.30E-06

 *** WARNING in fm/cp_fm_elpa.F:521 :: Setting real_kernel for ELPA failed ***

    10 Broy./Diag. 0.40E+00    1.8     0.00000176      -322.3506478468 -6.09E-06

 *** WARNING in fm/cp_fm_elpa.F:521 :: Setting real_kernel for ELPA failed ***

    11 Broy./Diag. 0.40E+00    1.8     0.00000106      -322.3506488362 -9.89E-07

 *** WARNING in fm/cp_fm_elpa.F:521 :: Setting real_kernel for ELPA failed ***

    12 Broy./Diag. 0.40E+00    1.8     0.00000057      -322.3506459502  2.89E-06

  *** SCF run converged in    12 steps ***


  Electronic density on regular grids:       -217.9999999988        0.0000000012
  Core density on regular grids:              219.9999999998       -0.0000000002
  Total charge density on r-space grids:        2.0000000011
  Total charge density g-space grids:           2.0000000011

  Overlap energy of the core charge distribution:               0.00001412518168
  Self energy of the core charge distribution:               -766.83425392616255
  Core Hamiltonian energy:                                    231.15795502589839
  Hartree energy:                                             308.91377893228321
  Exchange-correlation energy:                                -95.47081461775329
  Dispersion energy:                                           -0.11732548968431
  Electronic entropic energy:                                  -0.00000000000000
  Fermi energy:                                                -0.26384759760536

  Total energy:                                              -322.35064595023681

 ENERGY| Total FORCE_EVAL ( QS ) energy [hartree]           -322.350647263547614

 OPT| **************************************************************************
 OPT| Step number                                                            100
 OPT| Optimization method                                                   BFGS
 OPT| Total energy [hartree]                                     -322.3506472635
 OPT| Effective energy change [hartree]                            -0.0000097937
 OPT| Predicted energy change [hartree]                            -0.0000065413
 OPT| Scaling factor                                                0.7797712553
 OPT| Step size                                                     0.0210538553
 OPT| Trust radius                                                  0.3779452266
 OPT| Decrease in energy                                                     YES
 OPT| Used time [s]                                                       21.737
 OPT|
 OPT| Maximum step size                                             0.0210538553
 OPT| Convergence limit for maximum step size                       0.0030000000
 OPT| Maximum step size is converged                                          NO
 OPT|
 OPT| RMS step size                                                 0.0032818858
 OPT| Convergence limit for RMS step size                           0.0015000000
 OPT| RMS step size is converged                                              NO
 OPT|
 OPT| Maximum gradient                                              0.0004718794
 OPT| Convergence limit for maximum gradient                        0.0004500000
 OPT| Maximum gradient is converged                                           NO
 OPT|
 OPT| RMS gradient                                                  0.0001245992
 OPT| Convergence limit for RMS gradient                            0.0003000000
 OPT| RMS gradient is converged                                              YES
 OPT| **************************************************************************
 OPT| Estimated peak process memory after this step [MiB]                    716

 --------------------------
 OPTIMIZATION STEP:    101
 --------------------------

 *** WARNING in fm/cp_fm_elpa.F:521 :: Setting real_kernel for ELPA failed ***


 Number of electrons:                                                        218
 Number of occupied orbitals:                                                109
 Number of molecular orbitals:                                               146

 Number of orbital functions:                                                723
 Number of independent orbital functions:                                    723

 *** WARNING in fm/cp_fm_elpa.F:521 :: Setting real_kernel for ELPA failed ***


 Extrapolation method: ASPC


 SCF WAVEFUNCTION OPTIMIZATION

  Step     Update method      Time    Convergence         Total energy    Change
  ------------------------------------------------------------------------------

 *** WARNING in fm/cp_fm_elpa.F:521 :: Setting real_kernel for ELPA failed ***

     1 Broy./Diag. 0.40E+00    1.1     0.00272073      -322.3506167126 -3.22E+02

 *** WARNING in fm/cp_fm_elpa.F:521 :: Setting real_kernel for ELPA failed ***

     2 Broy./Diag. 0.40E+00    1.5     0.00048915      -322.3521329610 -1.52E-03

 *** WARNING in fm/cp_fm_elpa.F:521 :: Setting real_kernel for ELPA failed ***

     3 Broy./Diag. 0.40E+00    1.6     0.00021413      -322.3507489155  1.38E-03

 *** WARNING in fm/cp_fm_elpa.F:521 :: Setting real_kernel for ELPA failed ***

     4 Broy./Diag. 0.40E+00    1.6     0.00012061      -322.3507553747 -6.46E-06

 *** WARNING in fm/cp_fm_elpa.F:521 :: Setting real_kernel for ELPA failed ***

     5 Broy./Diag. 0.40E+00    1.6     0.00002033      -322.3505014627  2.54E-04

 *** WARNING in fm/cp_fm_elpa.F:521 :: Setting real_kernel for ELPA failed ***

     6 Broy./Diag. 0.40E+00    1.6     0.00001077      -322.3505963641 -9.49E-05

 *** WARNING in fm/cp_fm_elpa.F:521 :: Setting real_kernel for ELPA failed ***

     7 Broy./Diag. 0.40E+00    1.7     0.00000669      -322.3506282316 -3.19E-05

 *** WARNING in fm/cp_fm_elpa.F:521 :: Setting real_kernel for ELPA failed ***

     8 Broy./Diag. 0.40E+00    1.7     0.00000631      -322.3506554767 -2.72E-05

 *** WARNING in fm/cp_fm_elpa.F:521 :: Setting real_kernel for ELPA failed ***

     9 Broy./Diag. 0.40E+00    1.7     0.00000578      -322.3506514120  4.06E-06

 *** WARNING in fm/cp_fm_elpa.F:521 :: Setting real_kernel for ELPA failed ***

    10 Broy./Diag. 0.40E+00    1.8     0.00000440      -322.3506535080 -2.10E-06

 *** WARNING in fm/cp_fm_elpa.F:521 :: Setting real_kernel for ELPA failed ***

    11 Broy./Diag. 0.40E+00    1.8     0.00000212      -322.3506562010 -2.69E-06

 *** WARNING in fm/cp_fm_elpa.F:521 :: Setting real_kernel for ELPA failed ***

    12 Broy./Diag. 0.40E+00    1.8     0.00000070      -322.3506594356 -3.23E-06

  *** SCF run converged in    12 steps ***


  Electronic density on regular grids:       -217.9999999988        0.0000000012
  Core density on regular grids:              219.9999999998       -0.0000000002
  Total charge density on r-space grids:        2.0000000011
  Total charge density g-space grids:           2.0000000011

  Overlap energy of the core charge distribution:               0.00001413171994
  Self energy of the core charge distribution:               -766.83425392616255
  Core Hamiltonian energy:                                    231.15848588433698
  Hartree energy:                                             308.91342733795767
  Exchange-correlation energy:                                -95.47101349091137
  Dispersion energy:                                           -0.11731937252651
  Electronic entropic energy:                                  -0.00000000000000
  Fermi energy:                                                -0.26383788423132

  Total energy:                                              -322.35065943558590

 ENERGY| Total FORCE_EVAL ( QS ) energy [hartree]           -322.350659650986415

 OPT| **************************************************************************
 OPT| Step number                                                            101
 OPT| Optimization method                                                   BFGS
 OPT| Total energy [hartree]                                     -322.3506596510
 OPT| Effective energy change [hartree]                            -0.0000123874
 OPT| Predicted energy change [hartree]                            -0.0000087067
 OPT| Scaling factor                                                0.7797712553
 OPT| Step size                                                     0.0347025293
 OPT| Trust radius                                                  0.3779452266
 OPT| Decrease in energy                                                     YES
 OPT| Used time [s]                                                       21.727
 OPT|
 OPT| Maximum step size                                             0.0347025293
 OPT| Convergence limit for maximum step size                       0.0030000000
 OPT| Maximum step size is converged                                          NO
 OPT|
 OPT| RMS step size                                                 0.0043410726
 OPT| Convergence limit for RMS step size                           0.0015000000
 OPT| RMS step size is converged                                              NO
 OPT|
 OPT| Maximum gradient                                              0.0004288203
 OPT| Convergence limit for maximum gradient                        0.0004500000
 OPT| Maximum gradient is converged                                          YES
 OPT|
 OPT| RMS gradient                                                  0.0001257000
 OPT| Convergence limit for RMS gradient                            0.0003000000
 OPT| RMS gradient is converged                                              YES
 OPT| **************************************************************************
 OPT| Estimated peak process memory after this step [MiB]                    716

 --------------------------
 OPTIMIZATION STEP:    102
 --------------------------

 *** WARNING in fm/cp_fm_elpa.F:521 :: Setting real_kernel for ELPA failed ***


 Number of electrons:                                                        218
 Number of occupied orbitals:                                                109
 Number of molecular orbitals:                                               146

 Number of orbital functions:                                                723
 Number of independent orbital functions:                                    723

 *** WARNING in fm/cp_fm_elpa.F:521 :: Setting real_kernel for ELPA failed ***


 Extrapolation method: ASPC


 SCF WAVEFUNCTION OPTIMIZATION

  Step     Update method      Time    Convergence         Total energy    Change
  ------------------------------------------------------------------------------

 *** WARNING in fm/cp_fm_elpa.F:521 :: Setting real_kernel for ELPA failed ***

     1 Broy./Diag. 0.40E+00    1.1     0.00256927      -322.3506096688 -3.22E+02

 *** WARNING in fm/cp_fm_elpa.F:521 :: Setting real_kernel for ELPA failed ***

     2 Broy./Diag. 0.40E+00    1.6     0.00071560      -322.3536678850 -3.06E-03

 *** WARNING in fm/cp_fm_elpa.F:521 :: Setting real_kernel for ELPA failed ***

     3 Broy./Diag. 0.40E+00    1.6     0.00034767      -322.3511085351  2.56E-03

 *** WARNING in fm/cp_fm_elpa.F:521 :: Setting real_kernel for ELPA failed ***

     4 Broy./Diag. 0.40E+00    1.6     0.00018000      -322.3507098614  3.99E-04

 *** WARNING in fm/cp_fm_elpa.F:521 :: Setting real_kernel for ELPA failed ***

     5 Broy./Diag. 0.40E+00    1.6     0.00002546      -322.3503976968  3.12E-04

 *** WARNING in fm/cp_fm_elpa.F:521 :: Setting real_kernel for ELPA failed ***

     6 Broy./Diag. 0.40E+00    1.6     0.00001264      -322.3505969658 -1.99E-04

 *** WARNING in fm/cp_fm_elpa.F:521 :: Setting real_kernel for ELPA failed ***

     7 Broy./Diag. 0.40E+00    1.7     0.00000897      -322.3506356831 -3.87E-05

 *** WARNING in fm/cp_fm_elpa.F:521 :: Setting real_kernel for ELPA failed ***

     8 Broy./Diag. 0.40E+00    1.7     0.00000682      -322.3506519064 -1.62E-05

 *** WARNING in fm/cp_fm_elpa.F:521 :: Setting real_kernel for ELPA failed ***

     9 Broy./Diag. 0.40E+00    1.7     0.00000504      -322.3506538083 -1.90E-06

 *** WARNING in fm/cp_fm_elpa.F:521 :: Setting real_kernel for ELPA failed ***

    10 Broy./Diag. 0.40E+00    1.8     0.00000473      -322.3506680141 -1.42E-05

 *** WARNING in fm/cp_fm_elpa.F:521 :: Setting real_kernel for ELPA failed ***

    11 Broy./Diag. 0.40E+00    1.8     0.00000230      -322.3506670893  9.25E-07

 *** WARNING in fm/cp_fm_elpa.F:521 :: Setting real_kernel for ELPA failed ***

    12 Broy./Diag. 0.40E+00    1.8     0.00000160      -322.3506651674  1.92E-06

 *** WARNING in fm/cp_fm_elpa.F:521 :: Setting real_kernel for ELPA failed ***

    13 Broy./Diag. 0.40E+00    1.8     0.00000077      -322.3506656731 -5.06E-07

  *** SCF run converged in    13 steps ***


  Electronic density on regular grids:       -217.9999999988        0.0000000012
  Core density on regular grids:              219.9999999998       -0.0000000002
  Total charge density on r-space grids:        2.0000000011
  Total charge density g-space grids:           2.0000000011

  Overlap energy of the core charge distribution:               0.00001412417739
  Self energy of the core charge distribution:               -766.83425392616255
  Core Hamiltonian energy:                                    231.15564106158635
  Hartree energy:                                             308.91550267393302
  Exchange-correlation energy:                                -95.47025437530223
  Dispersion energy:                                           -0.11731523136604
  Electronic entropic energy:                                  -0.00000000000000
  Fermi energy:                                                -0.26390772934089

  Total energy:                                              -322.35066567313407

 ENERGY| Total FORCE_EVAL ( QS ) energy [hartree]           -322.350670444685534

 OPT| **************************************************************************
 OPT| Step number                                                            102
 OPT| Optimization method                                                   BFGS
 OPT| Total energy [hartree]                                     -322.3506704447
 OPT| Effective energy change [hartree]                            -0.0000107937
 OPT| Predicted energy change [hartree]                            -0.0000078511
 OPT| Scaling factor                                                0.7797712553
 OPT| Step size                                                     0.0350279586
 OPT| Trust radius                                                  0.3779452266
 OPT| Decrease in energy                                                     YES
 OPT| Used time [s]                                                       23.548
 OPT|
 OPT| Maximum step size                                             0.0350279586
 OPT| Convergence limit for maximum step size                       0.0030000000
 OPT| Maximum step size is converged                                          NO
 OPT|
 OPT| RMS step size                                                 0.0049199301
 OPT| Convergence limit for RMS step size                           0.0015000000
 OPT| RMS step size is converged                                              NO
 OPT|
 OPT| Maximum gradient                                              0.0003358958
 OPT| Convergence limit for maximum gradient                        0.0004500000
 OPT| Maximum gradient is converged                                          YES
 OPT|
 OPT| RMS gradient                                                  0.0001065071
 OPT| Convergence limit for RMS gradient                            0.0003000000
 OPT| RMS gradient is converged                                              YES
 OPT| **************************************************************************
 OPT| Estimated peak process memory after this step [MiB]                    716

 --------------------------
 OPTIMIZATION STEP:    103
 --------------------------

 *** WARNING in fm/cp_fm_elpa.F:521 :: Setting real_kernel for ELPA failed ***


 Number of electrons:                                                        218
 Number of occupied orbitals:                                                109
 Number of molecular orbitals:                                               146

 Number of orbital functions:                                                723
 Number of independent orbital functions:                                    723

 *** WARNING in fm/cp_fm_elpa.F:521 :: Setting real_kernel for ELPA failed ***


 Extrapolation method: ASPC


 SCF WAVEFUNCTION OPTIMIZATION

  Step     Update method      Time    Convergence         Total energy    Change
  ------------------------------------------------------------------------------

 *** WARNING in fm/cp_fm_elpa.F:521 :: Setting real_kernel for ELPA failed ***

     1 Broy./Diag. 0.40E+00    1.1     0.00191835      -322.3506427857 -3.22E+02

 *** WARNING in fm/cp_fm_elpa.F:521 :: Setting real_kernel for ELPA failed ***

     2 Broy./Diag. 0.40E+00    1.5     0.00034021      -322.3500823942  5.60E-04

 *** WARNING in fm/cp_fm_elpa.F:521 :: Setting real_kernel for ELPA failed ***

     3 Broy./Diag. 0.40E+00    1.6     0.00019913      -322.3504461085 -3.64E-04

 *** WARNING in fm/cp_fm_elpa.F:521 :: Setting real_kernel for ELPA failed ***

     4 Broy./Diag. 0.40E+00    1.6     0.00011053      -322.3507828628 -3.37E-04

 *** WARNING in fm/cp_fm_elpa.F:521 :: Setting real_kernel for ELPA failed ***

     5 Broy./Diag. 0.40E+00    1.6     0.00002197      -322.3506528124  1.30E-04

 *** WARNING in fm/cp_fm_elpa.F:521 :: Setting real_kernel for ELPA failed ***

     6 Broy./Diag. 0.40E+00    1.6     0.00000596      -322.3506690385 -1.62E-05

 *** WARNING in fm/cp_fm_elpa.F:521 :: Setting real_kernel for ELPA failed ***

     7 Broy./Diag. 0.40E+00    1.7     0.00000185      -322.3506643040  4.73E-06

 *** WARNING in fm/cp_fm_elpa.F:521 :: Setting real_kernel for ELPA failed ***

     8 Broy./Diag. 0.40E+00    1.7     0.00000193      -322.3506744876 -1.02E-05

 *** WARNING in fm/cp_fm_elpa.F:521 :: Setting real_kernel for ELPA failed ***

     9 Broy./Diag. 0.40E+00    1.7     0.00000170      -322.3506704797  4.01E-06

 *** WARNING in fm/cp_fm_elpa.F:521 :: Setting real_kernel for ELPA failed ***

    10 Broy./Diag. 0.40E+00    1.8     0.00000147      -322.3506732136 -2.73E-06

 *** WARNING in fm/cp_fm_elpa.F:521 :: Setting real_kernel for ELPA failed ***

    11 Broy./Diag. 0.40E+00    1.8     0.00000075      -322.3506746221 -1.41E-06

  *** SCF run converged in    11 steps ***


  Electronic density on regular grids:       -217.9999999988        0.0000000012
  Core density on regular grids:              219.9999999998       -0.0000000002
  Total charge density on r-space grids:        2.0000000011
  Total charge density g-space grids:           2.0000000011

  Overlap energy of the core charge distribution:               0.00001411553470
  Self energy of the core charge distribution:               -766.83425392616255
  Core Hamiltonian energy:                                    231.15097001422799
  Hartree energy:                                             308.91890154607472
  Exchange-correlation energy:                                -95.46900040069536
  Dispersion energy:                                           -0.11730597104966
  Electronic entropic energy:                                  -0.00000000000000
  Fermi energy:                                                -0.26389022062113

  Total energy:                                              -322.35067462207007

 ENERGY| Total FORCE_EVAL ( QS ) energy [hartree]           -322.350677521962837

 OPT| **************************************************************************
 OPT| Step number                                                            103
 OPT| Optimization method                                                   BFGS
 OPT| Total energy [hartree]                                     -322.3506775220
 OPT| Effective energy change [hartree]                            -0.0000070773
 OPT| Predicted energy change [hartree]                            -0.0000054095
 OPT| Scaling factor                                                0.7797712553
 OPT| Step size                                                     0.0199701252
 OPT| Trust radius                                                  0.3779452266
 OPT| Decrease in energy                                                     YES
 OPT| Used time [s]                                                       19.969
 OPT|
 OPT| Maximum step size                                             0.0199701252
 OPT| Convergence limit for maximum step size                       0.0030000000
 OPT| Maximum step size is converged                                          NO
 OPT|
 OPT| RMS step size                                                 0.0031481004
 OPT| Convergence limit for RMS step size                           0.0015000000
 OPT| RMS step size is converged                                              NO
 OPT|
 OPT| Maximum gradient                                              0.0003055433
 OPT| Convergence limit for maximum gradient                        0.0004500000
 OPT| Maximum gradient is converged                                          YES
 OPT|
 OPT| RMS gradient                                                  0.0000874407
 OPT| Convergence limit for RMS gradient                            0.0003000000
 OPT| RMS gradient is converged                                              YES
 OPT| **************************************************************************
 OPT| Estimated peak process memory after this step [MiB]                    716

 --------------------------
 OPTIMIZATION STEP:    104
 --------------------------

 *** WARNING in fm/cp_fm_elpa.F:521 :: Setting real_kernel for ELPA failed ***


 Number of electrons:                                                        218
 Number of occupied orbitals:                                                109
 Number of molecular orbitals:                                               146

 Number of orbital functions:                                                723
 Number of independent orbital functions:                                    723

 *** WARNING in fm/cp_fm_elpa.F:521 :: Setting real_kernel for ELPA failed ***


 Extrapolation method: ASPC


 SCF WAVEFUNCTION OPTIMIZATION

  Step     Update method      Time    Convergence         Total energy    Change
  ------------------------------------------------------------------------------

 *** WARNING in fm/cp_fm_elpa.F:521 :: Setting real_kernel for ELPA failed ***

     1 Broy./Diag. 0.40E+00    1.1     0.00154423      -322.3506392042 -3.22E+02

 *** WARNING in fm/cp_fm_elpa.F:521 :: Setting real_kernel for ELPA failed ***

     2 Broy./Diag. 0.40E+00    1.6     0.00032956      -322.3513612045 -7.22E-04

 *** WARNING in fm/cp_fm_elpa.F:521 :: Setting real_kernel for ELPA failed ***

     3 Broy./Diag. 0.40E+00    1.6     0.00011931      -322.3506532290  7.08E-04

 *** WARNING in fm/cp_fm_elpa.F:521 :: Setting real_kernel for ELPA failed ***

     4 Broy./Diag. 0.40E+00    1.6     0.00007327      -322.3506632237 -9.99E-06

 *** WARNING in fm/cp_fm_elpa.F:521 :: Setting real_kernel for ELPA failed ***

     5 Broy./Diag. 0.40E+00    1.6     0.00001426      -322.3505191769  1.44E-04

 *** WARNING in fm/cp_fm_elpa.F:521 :: Setting real_kernel for ELPA failed ***

     6 Broy./Diag. 0.40E+00    1.6     0.00001018      -322.3506135198 -9.43E-05

 *** WARNING in fm/cp_fm_elpa.F:521 :: Setting real_kernel for ELPA failed ***

     7 Broy./Diag. 0.40E+00    1.7     0.00000692      -322.3506342286 -2.07E-05

 *** WARNING in fm/cp_fm_elpa.F:521 :: Setting real_kernel for ELPA failed ***

     8 Broy./Diag. 0.40E+00    1.7     0.00000684      -322.3506725881 -3.84E-05

 *** WARNING in fm/cp_fm_elpa.F:521 :: Setting real_kernel for ELPA failed ***

     9 Broy./Diag. 0.40E+00    1.7     0.00000516      -322.3506781494 -5.56E-06

 *** WARNING in fm/cp_fm_elpa.F:521 :: Setting real_kernel for ELPA failed ***

    10 Broy./Diag. 0.40E+00    1.8     0.00000435      -322.3506792001 -1.05E-06

 *** WARNING in fm/cp_fm_elpa.F:521 :: Setting real_kernel for ELPA failed ***

    11 Broy./Diag. 0.40E+00    1.8     0.00000180      -322.3506766656  2.53E-06

 *** WARNING in fm/cp_fm_elpa.F:521 :: Setting real_kernel for ELPA failed ***

    12 Broy./Diag. 0.40E+00    1.8     0.00000130      -322.3506788191 -2.15E-06

 *** WARNING in fm/cp_fm_elpa.F:521 :: Setting real_kernel for ELPA failed ***

    13 Broy./Diag. 0.40E+00    1.8     0.00000070      -322.3506805549 -1.74E-06

  *** SCF run converged in    13 steps ***


  Electronic density on regular grids:       -217.9999999988        0.0000000012
  Core density on regular grids:              219.9999999998       -0.0000000002
  Total charge density on r-space grids:        2.0000000011
  Total charge density g-space grids:           2.0000000011

  Overlap energy of the core charge distribution:               0.00001410644161
  Self energy of the core charge distribution:               -766.83425392616255
  Core Hamiltonian energy:                                    231.14780187028600
  Hartree energy:                                             308.92123126120288
  Exchange-correlation energy:                                -95.46817495848904
  Dispersion energy:                                           -0.11729890813997
  Electronic entropic energy:                                  -0.00000000000000
  Fermi energy:                                                -0.26391321658841

  Total energy:                                              -322.35068055486101

 ENERGY| Total FORCE_EVAL ( QS ) energy [hartree]           -322.350681971161464

 OPT| **************************************************************************
 OPT| Step number                                                            104
 OPT| Optimization method                                                   BFGS
 OPT| Total energy [hartree]                                     -322.3506819712
 OPT| Effective energy change [hartree]                            -0.0000044492
 OPT| Predicted energy change [hartree]                            -0.0000036934
 OPT| Scaling factor                                                0.7797712553
 OPT| Step size                                                     0.0311748651
 OPT| Trust radius                                                  0.3779452266
 OPT| Decrease in energy                                                     YES
 OPT| Used time [s]                                                       23.558
 OPT|
 OPT| Maximum step size                                             0.0311748651
 OPT| Convergence limit for maximum step size                       0.0030000000
 OPT| Maximum step size is converged                                          NO
 OPT|
 OPT| RMS step size                                                 0.0033342466
 OPT| Convergence limit for RMS step size                           0.0015000000
 OPT| RMS step size is converged                                              NO
 OPT|
 OPT| Maximum gradient                                              0.0003555206
 OPT| Convergence limit for maximum gradient                        0.0004500000
 OPT| Maximum gradient is converged                                          YES
 OPT|
 OPT| RMS gradient                                                  0.0000744602
 OPT| Convergence limit for RMS gradient                            0.0003000000
 OPT| RMS gradient is converged                                              YES
 OPT| **************************************************************************
 OPT| Estimated peak process memory after this step [MiB]                    716

 --------------------------
 OPTIMIZATION STEP:    105
 --------------------------

 *** WARNING in fm/cp_fm_elpa.F:521 :: Setting real_kernel for ELPA failed ***


 Number of electrons:                                                        218
 Number of occupied orbitals:                                                109
 Number of molecular orbitals:                                               146

 Number of orbital functions:                                                723
 Number of independent orbital functions:                                    723

 *** WARNING in fm/cp_fm_elpa.F:521 :: Setting real_kernel for ELPA failed ***


 Extrapolation method: ASPC


 SCF WAVEFUNCTION OPTIMIZATION

  Step     Update method      Time    Convergence         Total energy    Change
  ------------------------------------------------------------------------------

 *** WARNING in fm/cp_fm_elpa.F:521 :: Setting real_kernel for ELPA failed ***

     1 Broy./Diag. 0.40E+00    1.1     0.00221393      -322.3506432920 -3.22E+02

 *** WARNING in fm/cp_fm_elpa.F:521 :: Setting real_kernel for ELPA failed ***

     2 Broy./Diag. 0.40E+00    1.5     0.00028516      -322.3514551522 -8.12E-04

 *** WARNING in fm/cp_fm_elpa.F:521 :: Setting real_kernel for ELPA failed ***

     3 Broy./Diag. 0.40E+00    1.6     0.00010445      -322.3509099292  5.45E-04

 *** WARNING in fm/cp_fm_elpa.F:521 :: Setting real_kernel for ELPA failed ***

     4 Broy./Diag. 0.40E+00    1.6     0.00007373      -322.3507756723  1.34E-04

 *** WARNING in fm/cp_fm_elpa.F:521 :: Setting real_kernel for ELPA failed ***

     5 Broy./Diag. 0.40E+00    1.6     0.00001279      -322.3507794748 -3.80E-06

 *** WARNING in fm/cp_fm_elpa.F:521 :: Setting real_kernel for ELPA failed ***

     6 Broy./Diag. 0.40E+00    1.6     0.00000944      -322.3507989275 -1.95E-05

 *** WARNING in fm/cp_fm_elpa.F:521 :: Setting real_kernel for ELPA failed ***

     7 Broy./Diag. 0.40E+00    1.7     0.00000701      -322.3507505712  4.84E-05

 *** WARNING in fm/cp_fm_elpa.F:521 :: Setting real_kernel for ELPA failed ***

     8 Broy./Diag. 0.40E+00    1.7     0.00000492      -322.3507016278  4.89E-05

 *** WARNING in fm/cp_fm_elpa.F:521 :: Setting real_kernel for ELPA failed ***

     9 Broy./Diag. 0.40E+00    1.7     0.00000394      -322.3506901156  1.15E-05

 *** WARNING in fm/cp_fm_elpa.F:521 :: Setting real_kernel for ELPA failed ***

    10 Broy./Diag. 0.40E+00    1.8     0.00000358      -322.3506926482 -2.53E-06

 *** WARNING in fm/cp_fm_elpa.F:521 :: Setting real_kernel for ELPA failed ***

    11 Broy./Diag. 0.40E+00    1.8     0.00000174      -322.3506897686  2.88E-06

 *** WARNING in fm/cp_fm_elpa.F:521 :: Setting real_kernel for ELPA failed ***

    12 Broy./Diag. 0.40E+00    1.8     0.00000078      -322.3506838515  5.92E-06

  *** SCF run converged in    12 steps ***


  Electronic density on regular grids:       -217.9999999988        0.0000000012
  Core density on regular grids:              219.9999999998       -0.0000000002
  Total charge density on r-space grids:        2.0000000011
  Total charge density g-space grids:           2.0000000011

  Overlap energy of the core charge distribution:               0.00001410080720
  Self energy of the core charge distribution:               -766.83425392616255
  Core Hamiltonian energy:                                    231.14637385075122
  Hartree energy:                                             308.92225038264439
  Exchange-correlation energy:                                -95.46776590980932
  Dispersion energy:                                           -0.11730234971997
  Electronic entropic energy:                                  -0.00000000000000
  Fermi energy:                                                -0.26392624304682

  Total energy:                                              -322.35068385148907

 ENERGY| Total FORCE_EVAL ( QS ) energy [hartree]           -322.350684913968166

 OPT| **************************************************************************
 OPT| Step number                                                            105
 OPT| Optimization method                                                   BFGS
 OPT| Total energy [hartree]                                     -322.3506849140
 OPT| Effective energy change [hartree]                            -0.0000029428
 OPT| Predicted energy change [hartree]                            -0.0000026425
 OPT| Scaling factor                                                0.7797712553
 OPT| Step size                                                     0.0122806882
 OPT| Trust radius                                                  0.3779452266
 OPT| Decrease in energy                                                     YES
 OPT| Used time [s]                                                       21.719
 OPT|
 OPT| Maximum step size                                             0.0122806882
 OPT| Convergence limit for maximum step size                       0.0030000000
 OPT| Maximum step size is converged                                          NO
 OPT|
 OPT| RMS step size                                                 0.0023907031
 OPT| Convergence limit for RMS step size                           0.0015000000
 OPT| RMS step size is converged                                              NO
 OPT|
 OPT| Maximum gradient                                              0.0002512274
 OPT| Convergence limit for maximum gradient                        0.0004500000
 OPT| Maximum gradient is converged                                          YES
 OPT|
 OPT| RMS gradient                                                  0.0000673666
 OPT| Convergence limit for RMS gradient                            0.0003000000
 OPT| RMS gradient is converged                                              YES
 OPT| **************************************************************************
 OPT| Estimated peak process memory after this step [MiB]                    716

 --------------------------
 OPTIMIZATION STEP:    106
 --------------------------

 *** WARNING in fm/cp_fm_elpa.F:521 :: Setting real_kernel for ELPA failed ***


 Number of electrons:                                                        218
 Number of occupied orbitals:                                                109
 Number of molecular orbitals:                                               146

 Number of orbital functions:                                                723
 Number of independent orbital functions:                                    723

 *** WARNING in fm/cp_fm_elpa.F:521 :: Setting real_kernel for ELPA failed ***


 Extrapolation method: ASPC


 SCF WAVEFUNCTION OPTIMIZATION

  Step     Update method      Time    Convergence         Total energy    Change
  ------------------------------------------------------------------------------

 *** WARNING in fm/cp_fm_elpa.F:521 :: Setting real_kernel for ELPA failed ***

     1 Broy./Diag. 0.40E+00    1.1     0.00174083      -322.3506467264 -3.22E+02

 *** WARNING in fm/cp_fm_elpa.F:521 :: Setting real_kernel for ELPA failed ***

     2 Broy./Diag. 0.40E+00    1.5     0.00027963      -322.3486601435  1.99E-03

 *** WARNING in fm/cp_fm_elpa.F:521 :: Setting real_kernel for ELPA failed ***

     3 Broy./Diag. 0.40E+00    1.6     0.00013203      -322.3501590353 -1.50E-03

 *** WARNING in fm/cp_fm_elpa.F:521 :: Setting real_kernel for ELPA failed ***

     4 Broy./Diag. 0.40E+00    1.6     0.00005421      -322.3505090986 -3.50E-04

 *** WARNING in fm/cp_fm_elpa.F:521 :: Setting real_kernel for ELPA failed ***

     5 Broy./Diag. 0.40E+00    1.6     0.00001788      -322.3506295727 -1.20E-04

 *** WARNING in fm/cp_fm_elpa.F:521 :: Setting real_kernel for ELPA failed ***

     6 Broy./Diag. 0.40E+00    1.6     0.00000586      -322.3505425261  8.70E-05

 *** WARNING in fm/cp_fm_elpa.F:521 :: Setting real_kernel for ELPA failed ***

     7 Broy./Diag. 0.40E+00    1.7     0.00000800      -322.3506000562 -5.75E-05

 *** WARNING in fm/cp_fm_elpa.F:521 :: Setting real_kernel for ELPA failed ***

     8 Broy./Diag. 0.40E+00    1.7     0.00000393      -322.3506536474 -5.36E-05

 *** WARNING in fm/cp_fm_elpa.F:521 :: Setting real_kernel for ELPA failed ***

     9 Broy./Diag. 0.40E+00    1.7     0.00000391      -322.3506789721 -2.53E-05

 *** WARNING in fm/cp_fm_elpa.F:521 :: Setting real_kernel for ELPA failed ***

    10 Broy./Diag. 0.40E+00    1.8     0.00000339      -322.3506780316  9.41E-07

 *** WARNING in fm/cp_fm_elpa.F:521 :: Setting real_kernel for ELPA failed ***

    11 Broy./Diag. 0.40E+00    1.8     0.00000218      -322.3506853312 -7.30E-06

 *** WARNING in fm/cp_fm_elpa.F:521 :: Setting real_kernel for ELPA failed ***

    12 Broy./Diag. 0.40E+00    1.8     0.00000088      -322.3506889536 -3.62E-06

  *** SCF run converged in    12 steps ***


  Electronic density on regular grids:       -217.9999999988        0.0000000012
  Core density on regular grids:              219.9999999998       -0.0000000002
  Total charge density on r-space grids:        2.0000000011
  Total charge density g-space grids:           2.0000000011

  Overlap energy of the core charge distribution:               0.00001410527799
  Self energy of the core charge distribution:               -766.83425392616255
  Core Hamiltonian energy:                                    231.14722228631157
  Hartree energy:                                             308.92166381053323
  Exchange-correlation energy:                                -95.46803511128010
  Dispersion energy:                                           -0.11730011829047
  Electronic entropic energy:                                  -0.00000000000000
  Fermi energy:                                                -0.26391693820619

  Total energy:                                              -322.35068895361030

 ENERGY| Total FORCE_EVAL ( QS ) energy [hartree]           -322.350686923821911

 OPT| **************************************************************************
 OPT| Step number                                                            106
 OPT| Optimization method                                                   BFGS
 OPT| Total energy [hartree]                                     -322.3506869238
 OPT| Effective energy change [hartree]                            -0.0000020099
 OPT| Predicted energy change [hartree]                            -0.0000014785
 OPT| Scaling factor                                                0.7797712553
 OPT| Step size                                                     0.0058968120
 OPT| Trust radius                                                  0.3779452266
 OPT| Decrease in energy                                                     YES
 OPT| Used time [s]                                                       21.725
 OPT|
 OPT| Maximum step size                                             0.0058968120
 OPT| Convergence limit for maximum step size                       0.0030000000
 OPT| Maximum step size is converged                                          NO
 OPT|
 OPT| RMS step size                                                 0.0011287961
 OPT| Convergence limit for RMS step size                           0.0015000000
 OPT| RMS step size is converged                                             YES
 OPT|
 OPT| Maximum gradient                                              0.0002115740
 OPT| Convergence limit for maximum gradient                        0.0004500000
 OPT| Maximum gradient is converged                                          YES
 OPT|
 OPT| RMS gradient                                                  0.0000547229
 OPT| Convergence limit for RMS gradient                            0.0003000000
 OPT| RMS gradient is converged                                              YES
 OPT| **************************************************************************
 OPT| Estimated peak process memory after this step [MiB]                    716

 --------------------------
 OPTIMIZATION STEP:    107
 --------------------------

 *** WARNING in fm/cp_fm_elpa.F:521 :: Setting real_kernel for ELPA failed ***


 Number of electrons:                                                        218
 Number of occupied orbitals:                                                109
 Number of molecular orbitals:                                               146

 Number of orbital functions:                                                723
 Number of independent orbital functions:                                    723

 *** WARNING in fm/cp_fm_elpa.F:521 :: Setting real_kernel for ELPA failed ***


 Extrapolation method: ASPC


 SCF WAVEFUNCTION OPTIMIZATION

  Step     Update method      Time    Convergence         Total energy    Change
  ------------------------------------------------------------------------------

 *** WARNING in fm/cp_fm_elpa.F:521 :: Setting real_kernel for ELPA failed ***

     1 Broy./Diag. 0.40E+00    1.1     0.00128985      -322.3506676291 -3.22E+02

 *** WARNING in fm/cp_fm_elpa.F:521 :: Setting real_kernel for ELPA failed ***

     2 Broy./Diag. 0.40E+00    1.5     0.00017461      -322.3521786154 -1.51E-03

 *** WARNING in fm/cp_fm_elpa.F:521 :: Setting real_kernel for ELPA failed ***

     3 Broy./Diag. 0.40E+00    1.6     0.00008315      -322.3509312332  1.25E-03

 *** WARNING in fm/cp_fm_elpa.F:521 :: Setting real_kernel for ELPA failed ***

     4 Broy./Diag. 0.40E+00    1.6     0.00005408      -322.3508229091  1.08E-04

 *** WARNING in fm/cp_fm_elpa.F:521 :: Setting real_kernel for ELPA failed ***

     5 Broy./Diag. 0.40E+00    1.6     0.00001216      -322.3506768223  1.46E-04

 *** WARNING in fm/cp_fm_elpa.F:521 :: Setting real_kernel for ELPA failed ***

     6 Broy./Diag. 0.40E+00    1.6     0.00000406      -322.3507525457 -7.57E-05

 *** WARNING in fm/cp_fm_elpa.F:521 :: Setting real_kernel for ELPA failed ***

     7 Broy./Diag. 0.40E+00    1.7     0.00000277      -322.3507315593  2.10E-05

 *** WARNING in fm/cp_fm_elpa.F:521 :: Setting real_kernel for ELPA failed ***

     8 Broy./Diag. 0.40E+00    1.7     0.00000286      -322.3507076251  2.39E-05

 *** WARNING in fm/cp_fm_elpa.F:521 :: Setting real_kernel for ELPA failed ***

     9 Broy./Diag. 0.40E+00    1.7     0.00000182      -322.3506926858  1.49E-05

 *** WARNING in fm/cp_fm_elpa.F:521 :: Setting real_kernel for ELPA failed ***

    10 Broy./Diag. 0.40E+00    1.8     0.00000126      -322.3506927008 -1.50E-08

 *** WARNING in fm/cp_fm_elpa.F:521 :: Setting real_kernel for ELPA failed ***

    11 Broy./Diag. 0.40E+00    1.8     0.00000090      -322.3506906675  2.03E-06

  *** SCF run converged in    11 steps ***


  Electronic density on regular grids:       -217.9999999988        0.0000000012
  Core density on regular grids:              219.9999999998       -0.0000000002
  Total charge density on r-space grids:        2.0000000011
  Total charge density g-space grids:           2.0000000011

  Overlap energy of the core charge distribution:               0.00001411099794
  Self energy of the core charge distribution:               -766.83425392616255
  Core Hamiltonian energy:                                    231.14918913689084
  Hartree energy:                                             308.92024939507860
  Exchange-correlation energy:                                -95.46859021979832
  Dispersion energy:                                           -0.11729916448528
  Electronic entropic energy:                                  -0.00000000000000
  Fermi energy:                                                -0.26391667581647

  Total energy:                                              -322.35069066747883

 ENERGY| Total FORCE_EVAL ( QS ) energy [hartree]           -322.350688726621343

 OPT| **************************************************************************
 OPT| Step number                                                            107
 OPT| Optimization method                                                   BFGS
 OPT| Total energy [hartree]                                     -322.3506887266
 OPT| Effective energy change [hartree]                            -0.0000018028
 OPT| Predicted energy change [hartree]                            -0.0000012698
 OPT| Scaling factor                                                0.7797712553
 OPT| Step size                                                     0.0054742223
 OPT| Trust radius                                                  0.3779452266
 OPT| Decrease in energy                                                     YES
 OPT| Used time [s]                                                       19.967
 OPT|
 OPT| Maximum step size                                             0.0054742223
 OPT| Convergence limit for maximum step size                       0.0030000000
 OPT| Maximum step size is converged                                          NO
 OPT|
 OPT| RMS step size                                                 0.0009648595
 OPT| Convergence limit for RMS step size                           0.0015000000
 OPT| RMS step size is converged                                             YES
 OPT|
 OPT| Maximum gradient                                              0.0001711459
 OPT| Convergence limit for maximum gradient                        0.0004500000
 OPT| Maximum gradient is converged                                          YES
 OPT|
 OPT| RMS gradient                                                  0.0000460346
 OPT| Convergence limit for RMS gradient                            0.0003000000
 OPT| RMS gradient is converged                                              YES
 OPT| **************************************************************************
 OPT| Estimated peak process memory after this step [MiB]                    716

 --------------------------
 OPTIMIZATION STEP:    108
 --------------------------

 *** WARNING in fm/cp_fm_elpa.F:521 :: Setting real_kernel for ELPA failed ***


 Number of electrons:                                                        218
 Number of occupied orbitals:                                                109
 Number of molecular orbitals:                                               146

 Number of orbital functions:                                                723
 Number of independent orbital functions:                                    723

 *** WARNING in fm/cp_fm_elpa.F:521 :: Setting real_kernel for ELPA failed ***


 Extrapolation method: ASPC


 SCF WAVEFUNCTION OPTIMIZATION

  Step     Update method      Time    Convergence         Total energy    Change
  ------------------------------------------------------------------------------

 *** WARNING in fm/cp_fm_elpa.F:521 :: Setting real_kernel for ELPA failed ***

     1 Broy./Diag. 0.40E+00    1.1     0.00074692      -322.3506821572 -3.22E+02

 *** WARNING in fm/cp_fm_elpa.F:521 :: Setting real_kernel for ELPA failed ***

     2 Broy./Diag. 0.40E+00    1.5     0.00011594      -322.3512027681 -5.21E-04

 *** WARNING in fm/cp_fm_elpa.F:521 :: Setting real_kernel for ELPA failed ***

     3 Broy./Diag. 0.40E+00    1.6     0.00005155      -322.3506690256  5.34E-04

 *** WARNING in fm/cp_fm_elpa.F:521 :: Setting real_kernel for ELPA failed ***

     4 Broy./Diag. 0.40E+00    1.6     0.00003934      -322.3506765436 -7.52E-06

 *** WARNING in fm/cp_fm_elpa.F:521 :: Setting real_kernel for ELPA failed ***

     5 Broy./Diag. 0.40E+00    1.6     0.00000956      -322.3506193245  5.72E-05

 *** WARNING in fm/cp_fm_elpa.F:521 :: Setting real_kernel for ELPA failed ***

     6 Broy./Diag. 0.40E+00    1.6     0.00000603      -322.3506472712 -2.79E-05

 *** WARNING in fm/cp_fm_elpa.F:521 :: Setting real_kernel for ELPA failed ***

     7 Broy./Diag. 0.40E+00    1.7     0.00000298      -322.3506654029 -1.81E-05

 *** WARNING in fm/cp_fm_elpa.F:521 :: Setting real_kernel for ELPA failed ***

     8 Broy./Diag. 0.40E+00    1.7     0.00000234      -322.3506800222 -1.46E-05

 *** WARNING in fm/cp_fm_elpa.F:521 :: Setting real_kernel for ELPA failed ***

     9 Broy./Diag. 0.40E+00    1.7     0.00000183      -322.3506834304 -3.41E-06

 *** WARNING in fm/cp_fm_elpa.F:521 :: Setting real_kernel for ELPA failed ***

    10 Broy./Diag. 0.40E+00    1.8     0.00000168      -322.3506878607 -4.43E-06

 *** WARNING in fm/cp_fm_elpa.F:521 :: Setting real_kernel for ELPA failed ***

    11 Broy./Diag. 0.40E+00    1.8     0.00000103      -322.3506904014 -2.54E-06

 *** WARNING in fm/cp_fm_elpa.F:521 :: Setting real_kernel for ELPA failed ***

    12 Broy./Diag. 0.40E+00    1.8     0.00000036      -322.3506922138 -1.81E-06

  *** SCF run converged in    12 steps ***


  Electronic density on regular grids:       -217.9999999988        0.0000000012
  Core density on regular grids:              219.9999999998       -0.0000000002
  Total charge density on r-space grids:        2.0000000011
  Total charge density g-space grids:           2.0000000011

  Overlap energy of the core charge distribution:               0.00001411609947
  Self energy of the core charge distribution:               -766.83425392616255
  Core Hamiltonian energy:                                    231.15046130339687
  Hartree energy:                                             308.91934409614294
  Exchange-correlation energy:                                -95.46896025394152
  Dispersion energy:                                           -0.11729754929691
  Electronic entropic energy:                                  -0.00000000000000
  Fermi energy:                                                -0.26392040508881

  Total energy:                                              -322.35069221376165

 ENERGY| Total FORCE_EVAL ( QS ) energy [hartree]           -322.350690760166174

 OPT| **************************************************************************
 OPT| Step number                                                            108
 OPT| Optimization method                                                   BFGS
 OPT| Total energy [hartree]                                     -322.3506907602
 OPT| Effective energy change [hartree]                            -0.0000020335
 OPT| Predicted energy change [hartree]                            -0.0000013539
 OPT| Scaling factor                                                0.7797712553
 OPT| Step size                                                     0.0078407034
 OPT| Trust radius                                                  0.3779452266
 OPT| Decrease in energy                                                     YES
 OPT| Used time [s]                                                       21.774
 OPT|
 OPT| Maximum step size                                             0.0078407034
 OPT| Convergence limit for maximum step size                       0.0030000000
 OPT| Maximum step size is converged                                          NO
 OPT|
 OPT| RMS step size                                                 0.0013012147
 OPT| Convergence limit for RMS step size                           0.0015000000
 OPT| RMS step size is converged                                             YES
 OPT|
 OPT| Maximum gradient                                              0.0002136049
 OPT| Convergence limit for maximum gradient                        0.0004500000
 OPT| Maximum gradient is converged                                          YES
 OPT|
 OPT| RMS gradient                                                  0.0000526822
 OPT| Convergence limit for RMS gradient                            0.0003000000
 OPT| RMS gradient is converged                                              YES
 OPT| **************************************************************************
 OPT| Estimated peak process memory after this step [MiB]                    716

 --------------------------
 OPTIMIZATION STEP:    109
 --------------------------

 *** WARNING in fm/cp_fm_elpa.F:521 :: Setting real_kernel for ELPA failed ***


 Number of electrons:                                                        218
 Number of occupied orbitals:                                                109
 Number of molecular orbitals:                                               146

 Number of orbital functions:                                                723
 Number of independent orbital functions:                                    723

 *** WARNING in fm/cp_fm_elpa.F:521 :: Setting real_kernel for ELPA failed ***


 Extrapolation method: ASPC


 SCF WAVEFUNCTION OPTIMIZATION

  Step     Update method      Time    Convergence         Total energy    Change
  ------------------------------------------------------------------------------

 *** WARNING in fm/cp_fm_elpa.F:521 :: Setting real_kernel for ELPA failed ***

     1 Broy./Diag. 0.40E+00    1.1     0.00122679      -322.3506806160 -3.22E+02

 *** WARNING in fm/cp_fm_elpa.F:521 :: Setting real_kernel for ELPA failed ***

     2 Broy./Diag. 0.40E+00    1.5     0.00010802      -322.3508749125 -1.94E-04

 *** WARNING in fm/cp_fm_elpa.F:521 :: Setting real_kernel for ELPA failed ***

     3 Broy./Diag. 0.40E+00    1.5     0.00005510      -322.3506289849  2.46E-04

 *** WARNING in fm/cp_fm_elpa.F:521 :: Setting real_kernel for ELPA failed ***

     4 Broy./Diag. 0.40E+00    1.5     0.00004495      -322.3507779863 -1.49E-04

 *** WARNING in fm/cp_fm_elpa.F:521 :: Setting real_kernel for ELPA failed ***

     5 Broy./Diag. 0.40E+00    1.5     0.00001468      -322.3506613613  1.17E-04

 *** WARNING in fm/cp_fm_elpa.F:521 :: Setting real_kernel for ELPA failed ***

     6 Broy./Diag. 0.40E+00    1.6     0.00000470      -322.3506840659 -2.27E-05

 *** WARNING in fm/cp_fm_elpa.F:521 :: Setting real_kernel for ELPA failed ***

     7 Broy./Diag. 0.40E+00    1.6     0.00000247      -322.3506830646  1.00E-06

 *** WARNING in fm/cp_fm_elpa.F:521 :: Setting real_kernel for ELPA failed ***

     8 Broy./Diag. 0.40E+00    1.6     0.00000283      -322.3506890292 -5.96E-06

 *** WARNING in fm/cp_fm_elpa.F:521 :: Setting real_kernel for ELPA failed ***

     9 Broy./Diag. 0.40E+00    1.6     0.00000108      -322.3506889163  1.13E-07

 *** WARNING in fm/cp_fm_elpa.F:521 :: Setting real_kernel for ELPA failed ***

    10 Broy./Diag. 0.40E+00    1.7     0.00000097      -322.3506913997 -2.48E-06

  *** SCF run converged in    10 steps ***


  Electronic density on regular grids:       -217.9999999988        0.0000000012
  Core density on regular grids:              219.9999999998       -0.0000000002
  Total charge density on r-space grids:        2.0000000011
  Total charge density g-space grids:           2.0000000011

  Overlap energy of the core charge distribution:               0.00001411921436
  Self energy of the core charge distribution:               -766.83425392616255
  Core Hamiltonian energy:                                    231.15049801312790
  Hartree energy:                                             308.91933583249624
  Exchange-correlation energy:                                -95.46899234827261
  Dispersion energy:                                           -0.11729309014481
  Electronic entropic energy:                                  -0.00000000000000
  Fermi energy:                                                -0.26391253126329

  Total energy:                                              -322.35069139974138

 ENERGY| Total FORCE_EVAL ( QS ) energy [hartree]           -322.350693410750409

 OPT| **************************************************************************
 OPT| Step number                                                            109
 OPT| Optimization method                                                   BFGS
 OPT| Total energy [hartree]                                     -322.3506934108
 OPT| Effective energy change [hartree]                            -0.0000026506
 OPT| Predicted energy change [hartree]                            -0.0000018709
 OPT| Scaling factor                                                0.7797712553
 OPT| Step size                                                     0.0091200051
 OPT| Trust radius                                                  0.3779452266
 OPT| Decrease in energy                                                     YES
 OPT| Used time [s]                                                       17.359
 OPT|
 OPT| Maximum step size                                             0.0091200051
 OPT| Convergence limit for maximum step size                       0.0030000000
 OPT| Maximum step size is converged                                          NO
 OPT|
 OPT| RMS step size                                                 0.0020050380
 OPT| Convergence limit for RMS step size                           0.0015000000
 OPT| RMS step size is converged                                              NO
 OPT|
 OPT| Maximum gradient                                              0.0002213871
 OPT| Convergence limit for maximum gradient                        0.0004500000
 OPT| Maximum gradient is converged                                          YES
 OPT|
 OPT| RMS gradient                                                  0.0000647483
 OPT| Convergence limit for RMS gradient                            0.0003000000
 OPT| RMS gradient is converged                                              YES
 OPT| **************************************************************************
 OPT| Estimated peak process memory after this step [MiB]                    716

 --------------------------
 OPTIMIZATION STEP:    110
 --------------------------

 *** WARNING in fm/cp_fm_elpa.F:521 :: Setting real_kernel for ELPA failed ***


 Number of electrons:                                                        218
 Number of occupied orbitals:                                                109
 Number of molecular orbitals:                                               146

 Number of orbital functions:                                                723
 Number of independent orbital functions:                                    723

 *** WARNING in fm/cp_fm_elpa.F:521 :: Setting real_kernel for ELPA failed ***


 Extrapolation method: ASPC


 SCF WAVEFUNCTION OPTIMIZATION

  Step     Update method      Time    Convergence         Total energy    Change
  ------------------------------------------------------------------------------

 *** WARNING in fm/cp_fm_elpa.F:521 :: Setting real_kernel for ELPA failed ***

     1 Broy./Diag. 0.40E+00    1.1     0.00136949      -322.3506787407 -3.22E+02

 *** WARNING in fm/cp_fm_elpa.F:521 :: Setting real_kernel for ELPA failed ***

     2 Broy./Diag. 0.40E+00    1.5     0.00012819      -322.3514044685 -7.26E-04

 *** WARNING in fm/cp_fm_elpa.F:521 :: Setting real_kernel for ELPA failed ***

     3 Broy./Diag. 0.40E+00    1.6     0.00007303      -322.3507144391  6.90E-04

 *** WARNING in fm/cp_fm_elpa.F:521 :: Setting real_kernel for ELPA failed ***

     4 Broy./Diag. 0.40E+00    1.6     0.00003408      -322.3506720983  4.23E-05

 *** WARNING in fm/cp_fm_elpa.F:521 :: Setting real_kernel for ELPA failed ***

     5 Broy./Diag. 0.40E+00    1.6     0.00000936      -322.3506214704  5.06E-05

 *** WARNING in fm/cp_fm_elpa.F:521 :: Setting real_kernel for ELPA failed ***

     6 Broy./Diag. 0.40E+00    1.6     0.00000552      -322.3506437737 -2.23E-05

 *** WARNING in fm/cp_fm_elpa.F:521 :: Setting real_kernel for ELPA failed ***

     7 Broy./Diag. 0.40E+00    1.7     0.00000213      -322.3506648468 -2.11E-05

 *** WARNING in fm/cp_fm_elpa.F:521 :: Setting real_kernel for ELPA failed ***

     8 Broy./Diag. 0.40E+00    1.7     0.00000244      -322.3506793119 -1.45E-05

 *** WARNING in fm/cp_fm_elpa.F:521 :: Setting real_kernel for ELPA failed ***

     9 Broy./Diag. 0.40E+00    1.7     0.00000152      -322.3506864087 -7.10E-06

 *** WARNING in fm/cp_fm_elpa.F:521 :: Setting real_kernel for ELPA failed ***

    10 Broy./Diag. 0.40E+00    1.8     0.00000134      -322.3506904675 -4.06E-06

 *** WARNING in fm/cp_fm_elpa.F:521 :: Setting real_kernel for ELPA failed ***

    11 Broy./Diag. 0.40E+00    1.8     0.00000074      -322.3506936872 -3.22E-06

  *** SCF run converged in    11 steps ***


  Electronic density on regular grids:       -217.9999999988        0.0000000012
  Core density on regular grids:              219.9999999998       -0.0000000002
  Total charge density on r-space grids:        2.0000000011
  Total charge density g-space grids:           2.0000000011

  Overlap energy of the core charge distribution:               0.00001411520465
  Self energy of the core charge distribution:               -766.83425392616255
  Core Hamiltonian energy:                                    231.14869603154085
  Hartree energy:                                             308.92066126474725
  Exchange-correlation energy:                                -95.46852089972927
  Dispersion energy:                                           -0.11729027280495
  Electronic entropic energy:                                  -0.00000000000000
  Fermi energy:                                                -0.26393054314023

  Total energy:                                              -322.35069368720400

 ENERGY| Total FORCE_EVAL ( QS ) energy [hartree]           -322.350696165787724

 OPT| **************************************************************************
 OPT| Step number                                                            110
 OPT| Optimization method                                                   BFGS
 OPT| Total energy [hartree]                                     -322.3506961658
 OPT| Effective energy change [hartree]                            -0.0000027550
 OPT| Predicted energy change [hartree]                            -0.0000019564
 OPT| Scaling factor                                                0.7797712553
 OPT| Step size                                                     0.0117143170
 OPT| Trust radius                                                  0.3779452266
 OPT| Decrease in energy                                                     YES
 OPT| Used time [s]                                                       19.902
 OPT|
 OPT| Maximum step size                                             0.0117143170
 OPT| Convergence limit for maximum step size                       0.0030000000
 OPT| Maximum step size is converged                                          NO
 OPT|
 OPT| RMS step size                                                 0.0023958645
 OPT| Convergence limit for RMS step size                           0.0015000000
 OPT| RMS step size is converged                                              NO
 OPT|
 OPT| Maximum gradient                                              0.0002531468
 OPT| Convergence limit for maximum gradient                        0.0004500000
 OPT| Maximum gradient is converged                                          YES
 OPT|
 OPT| RMS gradient                                                  0.0000657485
 OPT| Convergence limit for RMS gradient                            0.0003000000
 OPT| RMS gradient is converged                                              YES
 OPT| **************************************************************************
 OPT| Estimated peak process memory after this step [MiB]                    716

 --------------------------
 OPTIMIZATION STEP:    111
 --------------------------

 *** WARNING in fm/cp_fm_elpa.F:521 :: Setting real_kernel for ELPA failed ***


 Number of electrons:                                                        218
 Number of occupied orbitals:                                                109
 Number of molecular orbitals:                                               146

 Number of orbital functions:                                                723
 Number of independent orbital functions:                                    723

 *** WARNING in fm/cp_fm_elpa.F:521 :: Setting real_kernel for ELPA failed ***


 Extrapolation method: ASPC


 SCF WAVEFUNCTION OPTIMIZATION

  Step     Update method      Time    Convergence         Total energy    Change
  ------------------------------------------------------------------------------

 *** WARNING in fm/cp_fm_elpa.F:521 :: Setting real_kernel for ELPA failed ***

     1 Broy./Diag. 0.40E+00    1.1     0.00116442      -322.3506807389 -3.22E+02

 *** WARNING in fm/cp_fm_elpa.F:521 :: Setting real_kernel for ELPA failed ***

     2 Broy./Diag. 0.40E+00    1.5     0.00013907      -322.3506901464 -9.41E-06

 *** WARNING in fm/cp_fm_elpa.F:521 :: Setting real_kernel for ELPA failed ***

     3 Broy./Diag. 0.40E+00    1.6     0.00006962      -322.3505574048  1.33E-04

 *** WARNING in fm/cp_fm_elpa.F:521 :: Setting real_kernel for ELPA failed ***

     4 Broy./Diag. 0.40E+00    1.6     0.00004143      -322.3507056838 -1.48E-04

 *** WARNING in fm/cp_fm_elpa.F:521 :: Setting real_kernel for ELPA failed ***

     5 Broy./Diag. 0.40E+00    1.6     0.00001388      -322.3506324940  7.32E-05

 *** WARNING in fm/cp_fm_elpa.F:521 :: Setting real_kernel for ELPA failed ***

     6 Broy./Diag. 0.40E+00    1.6     0.00000741      -322.3506529628 -2.05E-05

 *** WARNING in fm/cp_fm_elpa.F:521 :: Setting real_kernel for ELPA failed ***

     7 Broy./Diag. 0.40E+00    1.7     0.00000206      -322.3506650014 -1.20E-05

 *** WARNING in fm/cp_fm_elpa.F:521 :: Setting real_kernel for ELPA failed ***

     8 Broy./Diag. 0.40E+00    1.7     0.00000241      -322.3506794950 -1.45E-05

 *** WARNING in fm/cp_fm_elpa.F:521 :: Setting real_kernel for ELPA failed ***

     9 Broy./Diag. 0.40E+00    1.7     0.00000160      -322.3506862941 -6.80E-06

 *** WARNING in fm/cp_fm_elpa.F:521 :: Setting real_kernel for ELPA failed ***

    10 Broy./Diag. 0.40E+00    1.8     0.00000137      -322.3506918185 -5.52E-06

 *** WARNING in fm/cp_fm_elpa.F:521 :: Setting real_kernel for ELPA failed ***

    11 Broy./Diag. 0.40E+00    1.8     0.00000071      -322.3506952334 -3.41E-06

  *** SCF run converged in    11 steps ***


  Electronic density on regular grids:       -217.9999999988        0.0000000012
  Core density on regular grids:              219.9999999998       -0.0000000002
  Total charge density on r-space grids:        2.0000000011
  Total charge density g-space grids:           2.0000000011

  Overlap energy of the core charge distribution:               0.00001411007085
  Self energy of the core charge distribution:               -766.83425392616255
  Core Hamiltonian energy:                                    231.14577417497642
  Hartree energy:                                             308.92281399303215
  Exchange-correlation energy:                                -95.46775717444712
  Dispersion energy:                                           -0.11728641086663
  Electronic entropic energy:                                  -0.00000000000000
  Fermi energy:                                                -0.26393645042400

  Total energy:                                              -322.35069523339689

 ENERGY| Total FORCE_EVAL ( QS ) energy [hartree]           -322.350699051702122

 OPT| **************************************************************************
 OPT| Step number                                                            111
 OPT| Optimization method                                                   BFGS
 OPT| Total energy [hartree]                                     -322.3506990517
 OPT| Effective energy change [hartree]                            -0.0000028859
 OPT| Predicted energy change [hartree]                            -0.0000019885
 OPT| Scaling factor                                                0.7797712553
 OPT| Step size                                                     0.0147763625
 OPT| Trust radius                                                  0.3779452266
 OPT| Decrease in energy                                                     YES
 OPT| Used time [s]                                                       19.878
 OPT|
 OPT| Maximum step size                                             0.0147763625
 OPT| Convergence limit for maximum step size                       0.0030000000
 OPT| Maximum step size is converged                                          NO
 OPT|
 OPT| RMS step size                                                 0.0026335872
 OPT| Convergence limit for RMS step size                           0.0015000000
 OPT| RMS step size is converged                                              NO
 OPT|
 OPT| Maximum gradient                                              0.0002465183
 OPT| Convergence limit for maximum gradient                        0.0004500000
 OPT| Maximum gradient is converged                                          YES
 OPT|
 OPT| RMS gradient                                                  0.0000602692
 OPT| Convergence limit for RMS gradient                            0.0003000000
 OPT| RMS gradient is converged                                              YES
 OPT| **************************************************************************
 OPT| Estimated peak process memory after this step [MiB]                    716

 --------------------------
 OPTIMIZATION STEP:    112
 --------------------------

 *** WARNING in fm/cp_fm_elpa.F:521 :: Setting real_kernel for ELPA failed ***


 Number of electrons:                                                        218
 Number of occupied orbitals:                                                109
 Number of molecular orbitals:                                               146

 Number of orbital functions:                                                723
 Number of independent orbital functions:                                    723

 *** WARNING in fm/cp_fm_elpa.F:521 :: Setting real_kernel for ELPA failed ***


 Extrapolation method: ASPC


 SCF WAVEFUNCTION OPTIMIZATION

  Step     Update method      Time    Convergence         Total energy    Change
  ------------------------------------------------------------------------------

 *** WARNING in fm/cp_fm_elpa.F:521 :: Setting real_kernel for ELPA failed ***

     1 Broy./Diag. 0.40E+00    1.1     0.00122183      -322.3506801033 -3.22E+02

 *** WARNING in fm/cp_fm_elpa.F:521 :: Setting real_kernel for ELPA failed ***

     2 Broy./Diag. 0.40E+00    1.5     0.00016951      -322.3515698340 -8.90E-04

 *** WARNING in fm/cp_fm_elpa.F:521 :: Setting real_kernel for ELPA failed ***

     3 Broy./Diag. 0.40E+00    1.6     0.00009892      -322.3506738928  8.96E-04

 *** WARNING in fm/cp_fm_elpa.F:521 :: Setting real_kernel for ELPA failed ***

     4 Broy./Diag. 0.40E+00    1.6     0.00005978      -322.3507198321 -4.59E-05

 *** WARNING in fm/cp_fm_elpa.F:521 :: Setting real_kernel for ELPA failed ***

     5 Broy./Diag. 0.40E+00    1.6     0.00001288      -322.3505903260  1.30E-04

 *** WARNING in fm/cp_fm_elpa.F:521 :: Setting real_kernel for ELPA failed ***

     6 Broy./Diag. 0.40E+00    1.6     0.00000720      -322.3506571094 -6.68E-05

 *** WARNING in fm/cp_fm_elpa.F:521 :: Setting real_kernel for ELPA failed ***

     7 Broy./Diag. 0.40E+00    1.7     0.00000310      -322.3506670886 -9.98E-06

 *** WARNING in fm/cp_fm_elpa.F:521 :: Setting real_kernel for ELPA failed ***

     8 Broy./Diag. 0.40E+00    1.7     0.00000435      -322.3506863933 -1.93E-05

 *** WARNING in fm/cp_fm_elpa.F:521 :: Setting real_kernel for ELPA failed ***

     9 Broy./Diag. 0.40E+00    1.7     0.00000289      -322.3506925315 -6.14E-06

 *** WARNING in fm/cp_fm_elpa.F:521 :: Setting real_kernel for ELPA failed ***

    10 Broy./Diag. 0.40E+00    1.8     0.00000279      -322.3506977058 -5.17E-06

 *** WARNING in fm/cp_fm_elpa.F:521 :: Setting real_kernel for ELPA failed ***

    11 Broy./Diag. 0.40E+00    1.8     0.00000109      -322.3506995538 -1.85E-06

 *** WARNING in fm/cp_fm_elpa.F:521 :: Setting real_kernel for ELPA failed ***

    12 Broy./Diag. 0.40E+00    1.8     0.00000059      -322.3507012814 -1.73E-06

  *** SCF run converged in    12 steps ***


  Electronic density on regular grids:       -217.9999999988        0.0000000012
  Core density on regular grids:              219.9999999998       -0.0000000002
  Total charge density on r-space grids:        2.0000000011
  Total charge density g-space grids:           2.0000000011

  Overlap energy of the core charge distribution:               0.00001410431532
  Self energy of the core charge distribution:               -766.83425392616255
  Core Hamiltonian energy:                                    231.14322109954992
  Hartree energy:                                             308.92471212150451
  Exchange-correlation energy:                                -95.46711241462927
  Dispersion energy:                                           -0.11728226596910
  Electronic entropic energy:                                  -0.00000000000000
  Fermi energy:                                                -0.26395054405461

  Total energy:                                              -322.35070128139108

 ENERGY| Total FORCE_EVAL ( QS ) energy [hartree]           -322.350701833174014

 OPT| **************************************************************************
 OPT| Step number                                                            112
 OPT| Optimization method                                                   BFGS
 OPT| Total energy [hartree]                                     -322.3507018332
 OPT| Effective energy change [hartree]                            -0.0000027815
 OPT| Predicted energy change [hartree]                            -0.0000020309
 OPT| Scaling factor                                                0.7797712553
 OPT| Step size                                                     0.0239339253
 OPT| Trust radius                                                  0.3779452266
 OPT| Decrease in energy                                                     YES
 OPT| Used time [s]                                                       21.565
 OPT|
 OPT| Maximum step size                                             0.0239339253
 OPT| Convergence limit for maximum step size                       0.0030000000
 OPT| Maximum step size is converged                                          NO
 OPT|
 OPT| RMS step size                                                 0.0030530595
 OPT| Convergence limit for RMS step size                           0.0015000000
 OPT| RMS step size is converged                                              NO
 OPT|
 OPT| Maximum gradient                                              0.0001747382
 OPT| Convergence limit for maximum gradient                        0.0004500000
 OPT| Maximum gradient is converged                                          YES
 OPT|
 OPT| RMS gradient                                                  0.0000575726
 OPT| Convergence limit for RMS gradient                            0.0003000000
 OPT| RMS gradient is converged                                              YES
 OPT| **************************************************************************
 OPT| Estimated peak process memory after this step [MiB]                    716

 --------------------------
 OPTIMIZATION STEP:    113
 --------------------------

 *** WARNING in fm/cp_fm_elpa.F:521 :: Setting real_kernel for ELPA failed ***


 Number of electrons:                                                        218
 Number of occupied orbitals:                                                109
 Number of molecular orbitals:                                               146

 Number of orbital functions:                                                723
 Number of independent orbital functions:                                    723

 *** WARNING in fm/cp_fm_elpa.F:521 :: Setting real_kernel for ELPA failed ***


 Extrapolation method: ASPC


 SCF WAVEFUNCTION OPTIMIZATION

  Step     Update method      Time    Convergence         Total energy    Change
  ------------------------------------------------------------------------------

 *** WARNING in fm/cp_fm_elpa.F:521 :: Setting real_kernel for ELPA failed ***

     1 Broy./Diag. 0.40E+00    1.1     0.00067720      -322.3506929526 -3.22E+02

 *** WARNING in fm/cp_fm_elpa.F:521 :: Setting real_kernel for ELPA failed ***

     2 Broy./Diag. 0.40E+00    1.5     0.00015781      -322.3513531137 -6.60E-04

 *** WARNING in fm/cp_fm_elpa.F:521 :: Setting real_kernel for ELPA failed ***

     3 Broy./Diag. 0.40E+00    1.6     0.00005987      -322.3506746865  6.78E-04

 *** WARNING in fm/cp_fm_elpa.F:521 :: Setting real_kernel for ELPA failed ***

     4 Broy./Diag. 0.40E+00    1.6     0.00004400      -322.3508098512 -1.35E-04

 *** WARNING in fm/cp_fm_elpa.F:521 :: Setting real_kernel for ELPA failed ***

     5 Broy./Diag. 0.40E+00    1.6     0.00001048      -322.3506877475  1.22E-04

 *** WARNING in fm/cp_fm_elpa.F:521 :: Setting real_kernel for ELPA failed ***

     6 Broy./Diag. 0.40E+00    1.6     0.00000371      -322.3507291142 -4.14E-05

 *** WARNING in fm/cp_fm_elpa.F:521 :: Setting real_kernel for ELPA failed ***

     7 Broy./Diag. 0.40E+00    1.7     0.00000107      -322.3507192488  9.87E-06

 *** WARNING in fm/cp_fm_elpa.F:521 :: Setting real_kernel for ELPA failed ***

     8 Broy./Diag. 0.40E+00    1.7     0.00000183      -322.3507109870  8.26E-06

 *** WARNING in fm/cp_fm_elpa.F:521 :: Setting real_kernel for ELPA failed ***

     9 Broy./Diag. 0.40E+00    1.7     0.00000081      -322.3507042888  6.70E-06

  *** SCF run converged in     9 steps ***


  Electronic density on regular grids:       -217.9999999988        0.0000000012
  Core density on regular grids:              219.9999999998       -0.0000000002
  Total charge density on r-space grids:        2.0000000011
  Total charge density g-space grids:           2.0000000011

  Overlap energy of the core charge distribution:               0.00001410332310
  Self energy of the core charge distribution:               -766.83425392616255
  Core Hamiltonian energy:                                    231.14250383059795
  Hartree energy:                                             308.92526233416561
  Exchange-correlation energy:                                -95.46695157974702
  Dispersion energy:                                           -0.11727905092962
  Electronic entropic energy:                                  -0.00000000000000
  Fermi energy:                                                -0.26393162690612

  Total energy:                                              -322.35070428875258

 ENERGY| Total FORCE_EVAL ( QS ) energy [hartree]           -322.350704442299048

 OPT| **************************************************************************
 OPT| Step number                                                            113
 OPT| Optimization method                                                   BFGS
 OPT| Total energy [hartree]                                     -322.3507044423
 OPT| Effective energy change [hartree]                            -0.0000026091
 OPT| Predicted energy change [hartree]                            -0.0000017957
 OPT| Scaling factor                                                0.7797712553
 OPT| Step size                                                     0.0149475965
 OPT| Trust radius                                                  0.3779452266
 OPT| Decrease in energy                                                     YES
 OPT| Used time [s]                                                       16.410
 OPT|
 OPT| Maximum step size                                             0.0149475965
 OPT| Convergence limit for maximum step size                       0.0030000000
 OPT| Maximum step size is converged                                          NO
 OPT|
 OPT| RMS step size                                                 0.0019817817
 OPT| Convergence limit for RMS step size                           0.0015000000
 OPT| RMS step size is converged                                              NO
 OPT|
 OPT| Maximum gradient                                              0.0001793200
 OPT| Convergence limit for maximum gradient                        0.0004500000
 OPT| Maximum gradient is converged                                          YES
 OPT|
 OPT| RMS gradient                                                  0.0000565101
 OPT| Convergence limit for RMS gradient                            0.0003000000
 OPT| RMS gradient is converged                                              YES
 OPT| **************************************************************************
 OPT| Estimated peak process memory after this step [MiB]                    716

 --------------------------
 OPTIMIZATION STEP:    114
 --------------------------

 *** WARNING in fm/cp_fm_elpa.F:521 :: Setting real_kernel for ELPA failed ***


 Number of electrons:                                                        218
 Number of occupied orbitals:                                                109
 Number of molecular orbitals:                                               146

 Number of orbital functions:                                                723
 Number of independent orbital functions:                                    723

 *** WARNING in fm/cp_fm_elpa.F:521 :: Setting real_kernel for ELPA failed ***


 Extrapolation method: ASPC


 SCF WAVEFUNCTION OPTIMIZATION

  Step     Update method      Time    Convergence         Total energy    Change
  ------------------------------------------------------------------------------

 *** WARNING in fm/cp_fm_elpa.F:521 :: Setting real_kernel for ELPA failed ***

     1 Broy./Diag. 0.40E+00    1.1     0.00133688      -322.3506962284 -3.22E+02

 *** WARNING in fm/cp_fm_elpa.F:521 :: Setting real_kernel for ELPA failed ***

     2 Broy./Diag. 0.40E+00    1.5     0.00011213      -322.3513233664 -6.27E-04

 *** WARNING in fm/cp_fm_elpa.F:521 :: Setting real_kernel for ELPA failed ***

     3 Broy./Diag. 0.40E+00    1.6     0.00004835      -322.3507731183  5.50E-04

 *** WARNING in fm/cp_fm_elpa.F:521 :: Setting real_kernel for ELPA failed ***

     4 Broy./Diag. 0.40E+00    1.6     0.00003299      -322.3507549874  1.81E-05

 *** WARNING in fm/cp_fm_elpa.F:521 :: Setting real_kernel for ELPA failed ***

     5 Broy./Diag. 0.40E+00    1.6     0.00000840      -322.3507046068  5.04E-05

 *** WARNING in fm/cp_fm_elpa.F:521 :: Setting real_kernel for ELPA failed ***

     6 Broy./Diag. 0.40E+00    1.6     0.00000214      -322.3507320140 -2.74E-05

 *** WARNING in fm/cp_fm_elpa.F:521 :: Setting real_kernel for ELPA failed ***

     7 Broy./Diag. 0.40E+00    1.7     0.00000102      -322.3507207901  1.12E-05

 *** WARNING in fm/cp_fm_elpa.F:521 :: Setting real_kernel for ELPA failed ***

     8 Broy./Diag. 0.40E+00    1.7     0.00000113      -322.3507147696  6.02E-06

 *** WARNING in fm/cp_fm_elpa.F:521 :: Setting real_kernel for ELPA failed ***

     9 Broy./Diag. 0.40E+00    1.7     0.00000066      -322.3507105568  4.21E-06

  *** SCF run converged in     9 steps ***


  Electronic density on regular grids:       -217.9999999988        0.0000000012
  Core density on regular grids:              219.9999999998       -0.0000000002
  Total charge density on r-space grids:        2.0000000011
  Total charge density g-space grids:           2.0000000011

  Overlap energy of the core charge distribution:               0.00001410470688
  Self energy of the core charge distribution:               -766.83425392616255
  Core Hamiltonian energy:                                    231.14373377828250
  Hartree energy:                                             308.92438546959198
  Exchange-correlation energy:                                -95.46730892498263
  Dispersion energy:                                           -0.11728105819357
  Electronic entropic energy:                                  -0.00000000000000
  Fermi energy:                                                -0.26393192424332

  Total energy:                                              -322.35071055675741

 ENERGY| Total FORCE_EVAL ( QS ) energy [hartree]           -322.350707527981740

 OPT| **************************************************************************
 OPT| Step number                                                            114
 OPT| Optimization method                                                   BFGS
 OPT| Total energy [hartree]                                     -322.3507075280
 OPT| Effective energy change [hartree]                            -0.0000030857
 OPT| Predicted energy change [hartree]                            -0.0000023061
 OPT| Scaling factor                                                0.7797712553
 OPT| Step size                                                     0.0081246575
 OPT| Trust radius                                                  0.3779452266
 OPT| Decrease in energy                                                     YES
 OPT| Used time [s]                                                       16.375
 OPT|
 OPT| Maximum step size                                             0.0081246575
 OPT| Convergence limit for maximum step size                       0.0030000000
 OPT| Maximum step size is converged                                          NO
 OPT|
 OPT| RMS step size                                                 0.0019637030
 OPT| Convergence limit for RMS step size                           0.0015000000
 OPT| RMS step size is converged                                              NO
 OPT|
 OPT| Maximum gradient                                              0.0002349723
 OPT| Convergence limit for maximum gradient                        0.0004500000
 OPT| Maximum gradient is converged                                          YES
 OPT|
 OPT| RMS gradient                                                  0.0000580133
 OPT| Convergence limit for RMS gradient                            0.0003000000
 OPT| RMS gradient is converged                                              YES
 OPT| **************************************************************************
 OPT| Estimated peak process memory after this step [MiB]                    716

 --------------------------
 OPTIMIZATION STEP:    115
 --------------------------

 *** WARNING in fm/cp_fm_elpa.F:521 :: Setting real_kernel for ELPA failed ***


 Number of electrons:                                                        218
 Number of occupied orbitals:                                                109
 Number of molecular orbitals:                                               146

 Number of orbital functions:                                                723
 Number of independent orbital functions:                                    723

 *** WARNING in fm/cp_fm_elpa.F:521 :: Setting real_kernel for ELPA failed ***


 Extrapolation method: ASPC


 SCF WAVEFUNCTION OPTIMIZATION

  Step     Update method      Time    Convergence         Total energy    Change
  ------------------------------------------------------------------------------

 *** WARNING in fm/cp_fm_elpa.F:521 :: Setting real_kernel for ELPA failed ***

     1 Broy./Diag. 0.40E+00    1.1     0.00083780      -322.3506980181 -3.22E+02

 *** WARNING in fm/cp_fm_elpa.F:521 :: Setting real_kernel for ELPA failed ***

     2 Broy./Diag. 0.40E+00    1.6     0.00011685      -322.3505543338  1.44E-04

 *** WARNING in fm/cp_fm_elpa.F:521 :: Setting real_kernel for ELPA failed ***

     3 Broy./Diag. 0.40E+00    1.6     0.00005742      -322.3506052611 -5.09E-05

 *** WARNING in fm/cp_fm_elpa.F:521 :: Setting real_kernel for ELPA failed ***

     4 Broy./Diag. 0.40E+00    1.6     0.00003280      -322.3507564213 -1.51E-04

 *** WARNING in fm/cp_fm_elpa.F:521 :: Setting real_kernel for ELPA failed ***

     5 Broy./Diag. 0.40E+00    1.6     0.00001337      -322.3507284146  2.80E-05

 *** WARNING in fm/cp_fm_elpa.F:521 :: Setting real_kernel for ELPA failed ***

     6 Broy./Diag. 0.40E+00    1.6     0.00000524      -322.3506969053  3.15E-05

 *** WARNING in fm/cp_fm_elpa.F:521 :: Setting real_kernel for ELPA failed ***

     7 Broy./Diag. 0.40E+00    1.7     0.00000393      -322.3507065582 -9.65E-06

 *** WARNING in fm/cp_fm_elpa.F:521 :: Setting real_kernel for ELPA failed ***

     8 Broy./Diag. 0.40E+00    1.7     0.00000334      -322.3507037929  2.77E-06

 *** WARNING in fm/cp_fm_elpa.F:521 :: Setting real_kernel for ELPA failed ***

     9 Broy./Diag. 0.40E+00    1.7     0.00000147      -322.3507112810 -7.49E-06

 *** WARNING in fm/cp_fm_elpa.F:521 :: Setting real_kernel for ELPA failed ***

    10 Broy./Diag. 0.40E+00    1.8     0.00000130      -322.3507084331  2.85E-06

 *** WARNING in fm/cp_fm_elpa.F:521 :: Setting real_kernel for ELPA failed ***

    11 Broy./Diag. 0.40E+00    1.8     0.00000079      -322.3507101717 -1.74E-06

  *** SCF run converged in    11 steps ***


  Electronic density on regular grids:       -217.9999999988        0.0000000012
  Core density on regular grids:              219.9999999998       -0.0000000002
  Total charge density on r-space grids:        2.0000000011
  Total charge density g-space grids:           2.0000000011

  Overlap energy of the core charge distribution:               0.00001410796751
  Self energy of the core charge distribution:               -766.83425392616255
  Core Hamiltonian energy:                                    231.14571112003705
  Hartree energy:                                             308.92294968487778
  Exchange-correlation energy:                                -95.46785050271640
  Dispersion energy:                                           -0.11728065565929
  Electronic entropic energy:                                  -0.00000000000000
  Fermi energy:                                                -0.26391865529023

  Total energy:                                              -322.35071017165586

 ENERGY| Total FORCE_EVAL ( QS ) energy [hartree]           -322.350709849746920

 OPT| **************************************************************************
 OPT| Step number                                                            115
 OPT| Optimization method                                                   BFGS
 OPT| Total energy [hartree]                                     -322.3507098497
 OPT| Effective energy change [hartree]                            -0.0000023218
 OPT| Predicted energy change [hartree]                            -0.0000016395
 OPT| Scaling factor                                                0.7797712553
 OPT| Step size                                                     0.0070955724
 OPT| Trust radius                                                  0.3779452266
 OPT| Decrease in energy                                                     YES
 OPT| Used time [s]                                                       20.003
 OPT|
 OPT| Maximum step size                                             0.0070955724
 OPT| Convergence limit for maximum step size                       0.0030000000
 OPT| Maximum step size is converged                                          NO
 OPT|
 OPT| RMS step size                                                 0.0014994326
 OPT| Convergence limit for RMS step size                           0.0015000000
 OPT| RMS step size is converged                                             YES
 OPT|
 OPT| Maximum gradient                                              0.0002334685
 OPT| Convergence limit for maximum gradient                        0.0004500000
 OPT| Maximum gradient is converged                                          YES
 OPT|
 OPT| RMS gradient                                                  0.0000568343
 OPT| Convergence limit for RMS gradient                            0.0003000000
 OPT| RMS gradient is converged                                              YES
 OPT| **************************************************************************
 OPT| Estimated peak process memory after this step [MiB]                    716

 --------------------------
 OPTIMIZATION STEP:    116
 --------------------------

 *** WARNING in fm/cp_fm_elpa.F:521 :: Setting real_kernel for ELPA failed ***


 Number of electrons:                                                        218
 Number of occupied orbitals:                                                109
 Number of molecular orbitals:                                               146

 Number of orbital functions:                                                723
 Number of independent orbital functions:                                    723

 *** WARNING in fm/cp_fm_elpa.F:521 :: Setting real_kernel for ELPA failed ***


 Extrapolation method: ASPC


 SCF WAVEFUNCTION OPTIMIZATION

  Step     Update method      Time    Convergence         Total energy    Change
  ------------------------------------------------------------------------------

 *** WARNING in fm/cp_fm_elpa.F:521 :: Setting real_kernel for ELPA failed ***

     1 Broy./Diag. 0.40E+00    1.1     0.00135493      -322.3506988425 -3.22E+02

 *** WARNING in fm/cp_fm_elpa.F:521 :: Setting real_kernel for ELPA failed ***

     2 Broy./Diag. 0.40E+00    1.6     0.00018913      -322.3519529393 -1.25E-03

 *** WARNING in fm/cp_fm_elpa.F:521 :: Setting real_kernel for ELPA failed ***

     3 Broy./Diag. 0.40E+00    1.6     0.00007464      -322.3508340021  1.12E-03

 *** WARNING in fm/cp_fm_elpa.F:521 :: Setting real_kernel for ELPA failed ***

     4 Broy./Diag. 0.40E+00    1.6     0.00004955      -322.3508177062  1.63E-05

 *** WARNING in fm/cp_fm_elpa.F:521 :: Setting real_kernel for ELPA failed ***

     5 Broy./Diag. 0.40E+00    1.6     0.00001046      -322.3506882325  1.29E-04

 *** WARNING in fm/cp_fm_elpa.F:521 :: Setting real_kernel for ELPA failed ***

     6 Broy./Diag. 0.40E+00    1.6     0.00000430      -322.3507441849 -5.60E-05

 *** WARNING in fm/cp_fm_elpa.F:521 :: Setting real_kernel for ELPA failed ***

     7 Broy./Diag. 0.40E+00    1.7     0.00000319      -322.3507361645  8.02E-06

 *** WARNING in fm/cp_fm_elpa.F:521 :: Setting real_kernel for ELPA failed ***

     8 Broy./Diag. 0.40E+00    1.7     0.00000308      -322.3507208296  1.53E-05

 *** WARNING in fm/cp_fm_elpa.F:521 :: Setting real_kernel for ELPA failed ***

     9 Broy./Diag. 0.40E+00    1.7     0.00000108      -322.3507129164  7.91E-06

 *** WARNING in fm/cp_fm_elpa.F:521 :: Setting real_kernel for ELPA failed ***

    10 Broy./Diag. 0.40E+00    1.8     0.00000131      -322.3507163371 -3.42E-06

 *** WARNING in fm/cp_fm_elpa.F:521 :: Setting real_kernel for ELPA failed ***

    11 Broy./Diag. 0.40E+00    1.8     0.00000099      -322.3507153894  9.48E-07

  *** SCF run converged in    11 steps ***


  Electronic density on regular grids:       -217.9999999988        0.0000000012
  Core density on regular grids:              219.9999999998       -0.0000000002
  Total charge density on r-space grids:        2.0000000011
  Total charge density g-space grids:           2.0000000011

  Overlap energy of the core charge distribution:               0.00001411189324
  Self energy of the core charge distribution:               -766.83425392616255
  Core Hamiltonian energy:                                    231.14762459475611
  Hartree energy:                                             308.92156869646135
  Exchange-correlation energy:                                -95.46838999638072
  Dispersion energy:                                           -0.11727886997676
  Electronic entropic energy:                                  -0.00000000000000
  Fermi energy:                                                -0.26390826115009

  Total energy:                                              -322.35071538940934

 ENERGY| Total FORCE_EVAL ( QS ) energy [hartree]           -322.350712230552404

 OPT| **************************************************************************
 OPT| Step number                                                            116
 OPT| Optimization method                                                   BFGS
 OPT| Total energy [hartree]                                     -322.3507122306
 OPT| Effective energy change [hartree]                            -0.0000023808
 OPT| Predicted energy change [hartree]                            -0.0000017864
 OPT| Scaling factor                                                0.7797712553
 OPT| Step size                                                     0.0104622858
 OPT| Trust radius                                                  0.3779452266
 OPT| Decrease in energy                                                     YES
 OPT| Used time [s]                                                       20.021
 OPT|
 OPT| Maximum step size                                             0.0104622858
 OPT| Convergence limit for maximum step size                       0.0030000000
 OPT| Maximum step size is converged                                          NO
 OPT|
 OPT| RMS step size                                                 0.0019064341
 OPT| Convergence limit for RMS step size                           0.0015000000
 OPT| RMS step size is converged                                              NO
 OPT|
 OPT| Maximum gradient                                              0.0002041482
 OPT| Convergence limit for maximum gradient                        0.0004500000
 OPT| Maximum gradient is converged                                          YES
 OPT|
 OPT| RMS gradient                                                  0.0000543698
 OPT| Convergence limit for RMS gradient                            0.0003000000
 OPT| RMS gradient is converged                                              YES
 OPT| **************************************************************************
 OPT| Estimated peak process memory after this step [MiB]                    716

 --------------------------
 OPTIMIZATION STEP:    117
 --------------------------

 *** WARNING in fm/cp_fm_elpa.F:521 :: Setting real_kernel for ELPA failed ***


 Number of electrons:                                                        218
 Number of occupied orbitals:                                                109
 Number of molecular orbitals:                                               146

 Number of orbital functions:                                                723
 Number of independent orbital functions:                                    723

 *** WARNING in fm/cp_fm_elpa.F:521 :: Setting real_kernel for ELPA failed ***


 Extrapolation method: ASPC


 SCF WAVEFUNCTION OPTIMIZATION

  Step     Update method      Time    Convergence         Total energy    Change
  ------------------------------------------------------------------------------

 *** WARNING in fm/cp_fm_elpa.F:521 :: Setting real_kernel for ELPA failed ***

     1 Broy./Diag. 0.40E+00    1.1     0.00096227      -322.3507048605 -3.22E+02

 *** WARNING in fm/cp_fm_elpa.F:521 :: Setting real_kernel for ELPA failed ***

     2 Broy./Diag. 0.40E+00    1.5     0.00013801      -322.3515532926 -8.48E-04

 *** WARNING in fm/cp_fm_elpa.F:521 :: Setting real_kernel for ELPA failed ***

     3 Broy./Diag. 0.40E+00    1.6     0.00005757      -322.3507513721  8.02E-04

 *** WARNING in fm/cp_fm_elpa.F:521 :: Setting real_kernel for ELPA failed ***

     4 Broy./Diag. 0.40E+00    1.6     0.00003957      -322.3507959340 -4.46E-05

 *** WARNING in fm/cp_fm_elpa.F:521 :: Setting real_kernel for ELPA failed ***

     5 Broy./Diag. 0.40E+00    1.6     0.00000791      -322.3506780283  1.18E-04

 *** WARNING in fm/cp_fm_elpa.F:521 :: Setting real_kernel for ELPA failed ***

     6 Broy./Diag. 0.40E+00    1.6     0.00000312      -322.3507115003 -3.35E-05

 *** WARNING in fm/cp_fm_elpa.F:521 :: Setting real_kernel for ELPA failed ***

     7 Broy./Diag. 0.40E+00    1.7     0.00000173      -322.3507129519 -1.45E-06

 *** WARNING in fm/cp_fm_elpa.F:521 :: Setting real_kernel for ELPA failed ***

     8 Broy./Diag. 0.40E+00    1.7     0.00000212      -322.3507137862 -8.34E-07

 *** WARNING in fm/cp_fm_elpa.F:521 :: Setting real_kernel for ELPA failed ***

     9 Broy./Diag. 0.40E+00    1.7     0.00000083      -322.3507126853  1.10E-06

  *** SCF run converged in     9 steps ***


  Electronic density on regular grids:       -217.9999999988        0.0000000012
  Core density on regular grids:              219.9999999998       -0.0000000002
  Total charge density on r-space grids:        2.0000000011
  Total charge density g-space grids:           2.0000000011

  Overlap energy of the core charge distribution:               0.00001411290929
  Self energy of the core charge distribution:               -766.83425392616255
  Core Hamiltonian energy:                                    231.14825056340902
  Hartree energy:                                             308.92111214632723
  Exchange-correlation energy:                                -95.46855829258627
  Dispersion energy:                                           -0.11727728921558
  Electronic entropic energy:                                  -0.00000000000000
  Fermi energy:                                                -0.26391419388844

  Total energy:                                              -322.35071268531880

 ENERGY| Total FORCE_EVAL ( QS ) energy [hartree]           -322.350714091734119

 OPT| **************************************************************************
 OPT| Step number                                                            117
 OPT| Optimization method                                                   BFGS
 OPT| Total energy [hartree]                                     -322.3507140917
 OPT| Effective energy change [hartree]                            -0.0000018612
 OPT| Predicted energy change [hartree]                            -0.0000013139
 OPT| Scaling factor                                                0.7797712553
 OPT| Step size                                                     0.0056359155
 OPT| Trust radius                                                  0.3779452266
 OPT| Decrease in energy                                                     YES
 OPT| Used time [s]                                                       16.452
 OPT|
 OPT| Maximum step size                                             0.0056359155
 OPT| Convergence limit for maximum step size                       0.0030000000
 OPT| Maximum step size is converged                                          NO
 OPT|
 OPT| RMS step size                                                 0.0013546237
 OPT| Convergence limit for RMS step size                           0.0015000000
 OPT| RMS step size is converged                                             YES
 OPT|
 OPT| Maximum gradient                                              0.0001895603
 OPT| Convergence limit for maximum gradient                        0.0004500000
 OPT| Maximum gradient is converged                                          YES
 OPT|
 OPT| RMS gradient                                                  0.0000515118
 OPT| Convergence limit for RMS gradient                            0.0003000000
 OPT| RMS gradient is converged                                              YES
 OPT| **************************************************************************
 OPT| Estimated peak process memory after this step [MiB]                    716

 --------------------------
 OPTIMIZATION STEP:    118
 --------------------------

 *** WARNING in fm/cp_fm_elpa.F:521 :: Setting real_kernel for ELPA failed ***


 Number of electrons:                                                        218
 Number of occupied orbitals:                                                109
 Number of molecular orbitals:                                               146

 Number of orbital functions:                                                723
 Number of independent orbital functions:                                    723

 *** WARNING in fm/cp_fm_elpa.F:521 :: Setting real_kernel for ELPA failed ***


 Extrapolation method: ASPC


 SCF WAVEFUNCTION OPTIMIZATION

  Step     Update method      Time    Convergence         Total energy    Change
  ------------------------------------------------------------------------------

 *** WARNING in fm/cp_fm_elpa.F:521 :: Setting real_kernel for ELPA failed ***

     1 Broy./Diag. 0.40E+00    1.1     0.00080822      -322.3507082437 -3.22E+02

 *** WARNING in fm/cp_fm_elpa.F:521 :: Setting real_kernel for ELPA failed ***

     2 Broy./Diag. 0.40E+00    1.6     0.00009590      -322.3510587068 -3.50E-04

 *** WARNING in fm/cp_fm_elpa.F:521 :: Setting real_kernel for ELPA failed ***

     3 Broy./Diag. 0.40E+00    1.6     0.00003267      -322.3506953967  3.63E-04

 *** WARNING in fm/cp_fm_elpa.F:521 :: Setting real_kernel for ELPA failed ***

     4 Broy./Diag. 0.40E+00    1.6     0.00002635      -322.3507588312 -6.34E-05

 *** WARNING in fm/cp_fm_elpa.F:521 :: Setting real_kernel for ELPA failed ***

     5 Broy./Diag. 0.40E+00    1.6     0.00000725      -322.3506772832  8.15E-05

 *** WARNING in fm/cp_fm_elpa.F:521 :: Setting real_kernel for ELPA failed ***

     6 Broy./Diag. 0.40E+00    1.6     0.00000341      -322.3507053177 -2.80E-05

 *** WARNING in fm/cp_fm_elpa.F:521 :: Setting real_kernel for ELPA failed ***

     7 Broy./Diag. 0.40E+00    1.7     0.00000220      -322.3507062517 -9.34E-07

 *** WARNING in fm/cp_fm_elpa.F:521 :: Setting real_kernel for ELPA failed ***

     8 Broy./Diag. 0.40E+00    1.7     0.00000212      -322.3507135241 -7.27E-06

 *** WARNING in fm/cp_fm_elpa.F:521 :: Setting real_kernel for ELPA failed ***

     9 Broy./Diag. 0.40E+00    1.7     0.00000089      -322.3507128208  7.03E-07

  *** SCF run converged in     9 steps ***


  Electronic density on regular grids:       -217.9999999988        0.0000000012
  Core density on regular grids:              219.9999999998       -0.0000000002
  Total charge density on r-space grids:        2.0000000011
  Total charge density g-space grids:           2.0000000011

  Overlap energy of the core charge distribution:               0.00001411012972
  Self energy of the core charge distribution:               -766.83425392616255
  Core Hamiltonian energy:                                    231.14728365417693
  Hartree energy:                                             308.92180569654693
  Exchange-correlation energy:                                -95.46828710288318
  Dispersion energy:                                           -0.11727525265726
  Electronic entropic energy:                                  -0.00000000000000
  Fermi energy:                                                -0.26391666030425

  Total energy:                                              -322.35071282084937

 ENERGY| Total FORCE_EVAL ( QS ) energy [hartree]           -322.350715809269445

 OPT| **************************************************************************
 OPT| Step number                                                            118
 OPT| Optimization method                                                   BFGS
 OPT| Total energy [hartree]                                     -322.3507158093
 OPT| Effective energy change [hartree]                            -0.0000017175
 OPT| Predicted energy change [hartree]                            -0.0000012444
 OPT| Scaling factor                                                0.7797712553
 OPT| Step size                                                     0.0061516932
 OPT| Trust radius                                                  0.3779452266
 OPT| Decrease in energy                                                     YES
 OPT| Used time [s]                                                       16.505
 OPT|
 OPT| Maximum step size                                             0.0061516932
 OPT| Convergence limit for maximum step size                       0.0030000000
 OPT| Maximum step size is converged                                          NO
 OPT|
 OPT| RMS step size                                                 0.0013887715
 OPT| Convergence limit for RMS step size                           0.0015000000
 OPT| RMS step size is converged                                             YES
 OPT|
 OPT| Maximum gradient                                              0.0001763225
 OPT| Convergence limit for maximum gradient                        0.0004500000
 OPT| Maximum gradient is converged                                          YES
 OPT|
 OPT| RMS gradient                                                  0.0000450721
 OPT| Convergence limit for RMS gradient                            0.0003000000
 OPT| RMS gradient is converged                                              YES
 OPT| **************************************************************************
 OPT| Estimated peak process memory after this step [MiB]                    716

 --------------------------
 OPTIMIZATION STEP:    119
 --------------------------

 *** WARNING in fm/cp_fm_elpa.F:521 :: Setting real_kernel for ELPA failed ***


 Number of electrons:                                                        218
 Number of occupied orbitals:                                                109
 Number of molecular orbitals:                                               146

 Number of orbital functions:                                                723
 Number of independent orbital functions:                                    723

 *** WARNING in fm/cp_fm_elpa.F:521 :: Setting real_kernel for ELPA failed ***


 Extrapolation method: ASPC


 SCF WAVEFUNCTION OPTIMIZATION

  Step     Update method      Time    Convergence         Total energy    Change
  ------------------------------------------------------------------------------

 *** WARNING in fm/cp_fm_elpa.F:521 :: Setting real_kernel for ELPA failed ***

     1 Broy./Diag. 0.40E+00    1.1     0.00037630      -322.3507132096 -3.22E+02

 *** WARNING in fm/cp_fm_elpa.F:521 :: Setting real_kernel for ELPA failed ***

     2 Broy./Diag. 0.40E+00    1.6     0.00008191      -322.3505632724  1.50E-04

 *** WARNING in fm/cp_fm_elpa.F:521 :: Setting real_kernel for ELPA failed ***

     3 Broy./Diag. 0.40E+00    1.6     0.00004256      -322.3506300897 -6.68E-05

 *** WARNING in fm/cp_fm_elpa.F:521 :: Setting real_kernel for ELPA failed ***

     4 Broy./Diag. 0.40E+00    1.6     0.00001954      -322.3507536895 -1.24E-04

 *** WARNING in fm/cp_fm_elpa.F:521 :: Setting real_kernel for ELPA failed ***

     5 Broy./Diag. 0.40E+00    1.6     0.00000540      -322.3507102435  4.34E-05

 *** WARNING in fm/cp_fm_elpa.F:521 :: Setting real_kernel for ELPA failed ***

     6 Broy./Diag. 0.40E+00    1.6     0.00000188      -322.3507163249 -6.08E-06

 *** WARNING in fm/cp_fm_elpa.F:521 :: Setting real_kernel for ELPA failed ***

     7 Broy./Diag. 0.40E+00    1.7     0.00000076      -322.3507122919  4.03E-06

  *** SCF run converged in     7 steps ***


  Electronic density on regular grids:       -217.9999999988        0.0000000012
  Core density on regular grids:              219.9999999998       -0.0000000002
  Total charge density on r-space grids:        2.0000000011
  Total charge density g-space grids:           2.0000000011

  Overlap energy of the core charge distribution:               0.00001410667763
  Self energy of the core charge distribution:               -766.83425392616255
  Core Hamiltonian energy:                                    231.14595977441633
  Hartree energy:                                             308.92275274596545
  Exchange-correlation energy:                                -95.46790999630764
  Dispersion energy:                                           -0.11727499644412
  Electronic entropic energy:                                  -0.00000000000000
  Fermi energy:                                                -0.26391740012946

  Total energy:                                              -322.35071229185479

 ENERGY| Total FORCE_EVAL ( QS ) energy [hartree]           -322.350717121765740

 OPT| **************************************************************************
 OPT| Step number                                                            119
 OPT| Optimization method                                                   BFGS
 OPT| Total energy [hartree]                                     -322.3507171218
 OPT| Effective energy change [hartree]                            -0.0000013125
 OPT| Predicted energy change [hartree]                            -0.0000009372
 OPT| Scaling factor                                                0.7797712553
 OPT| Step size                                                     0.0037195862
 OPT| Trust radius                                                  0.3779452266
 OPT| Decrease in energy                                                     YES
 OPT| Used time [s]                                                       13.016
 OPT|
 OPT| Maximum step size                                             0.0037195862
 OPT| Convergence limit for maximum step size                       0.0030000000
 OPT| Maximum step size is converged                                          NO
 OPT|
 OPT| RMS step size                                                 0.0009791826
 OPT| Convergence limit for RMS step size                           0.0015000000
 OPT| RMS step size is converged                                             YES
 OPT|
 OPT| Maximum gradient                                              0.0001811471
 OPT| Convergence limit for maximum gradient                        0.0004500000
 OPT| Maximum gradient is converged                                          YES
 OPT|
 OPT| RMS gradient                                                  0.0000411349
 OPT| Convergence limit for RMS gradient                            0.0003000000
 OPT| RMS gradient is converged                                              YES
 OPT| **************************************************************************
 OPT| Estimated peak process memory after this step [MiB]                    716

 --------------------------
 OPTIMIZATION STEP:    120
 --------------------------

 *** WARNING in fm/cp_fm_elpa.F:521 :: Setting real_kernel for ELPA failed ***


 Number of electrons:                                                        218
 Number of occupied orbitals:                                                109
 Number of molecular orbitals:                                               146

 Number of orbital functions:                                                723
 Number of independent orbital functions:                                    723

 *** WARNING in fm/cp_fm_elpa.F:521 :: Setting real_kernel for ELPA failed ***


 Extrapolation method: ASPC


 SCF WAVEFUNCTION OPTIMIZATION

  Step     Update method      Time    Convergence         Total energy    Change
  ------------------------------------------------------------------------------

 *** WARNING in fm/cp_fm_elpa.F:521 :: Setting real_kernel for ELPA failed ***

     1 Broy./Diag. 0.40E+00    1.1     0.00055279      -322.3507142738 -3.22E+02

 *** WARNING in fm/cp_fm_elpa.F:521 :: Setting real_kernel for ELPA failed ***

     2 Broy./Diag. 0.40E+00    1.6     0.00008749      -322.3506123981  1.02E-04

 *** WARNING in fm/cp_fm_elpa.F:521 :: Setting real_kernel for ELPA failed ***

     3 Broy./Diag. 0.40E+00    1.6     0.00002666      -322.3506905364 -7.81E-05

 *** WARNING in fm/cp_fm_elpa.F:521 :: Setting real_kernel for ELPA failed ***

     4 Broy./Diag. 0.40E+00    1.6     0.00001879      -322.3507153421 -2.48E-05

 *** WARNING in fm/cp_fm_elpa.F:521 :: Setting real_kernel for ELPA failed ***

     5 Broy./Diag. 0.40E+00    1.6     0.00000412      -322.3507118860  3.46E-06

 *** WARNING in fm/cp_fm_elpa.F:521 :: Setting real_kernel for ELPA failed ***

     6 Broy./Diag. 0.40E+00    1.6     0.00000143      -322.3507053380  6.55E-06

 *** WARNING in fm/cp_fm_elpa.F:521 :: Setting real_kernel for ELPA failed ***

     7 Broy./Diag. 0.40E+00    1.7     0.00000084      -322.3507087404 -3.40E-06

  *** SCF run converged in     7 steps ***


  Electronic density on regular grids:       -217.9999999988        0.0000000012
  Core density on regular grids:              219.9999999998       -0.0000000002
  Total charge density on r-space grids:        2.0000000011
  Total charge density g-space grids:           2.0000000011

  Overlap energy of the core charge distribution:               0.00001410344635
  Self energy of the core charge distribution:               -766.83425392616255
  Core Hamiltonian energy:                                    231.14455365663258
  Hartree energy:                                             308.92376876977238
  Exchange-correlation energy:                                -95.46751691042176
  Dispersion energy:                                           -0.11727443364738
  Electronic entropic energy:                                  -0.00000000000000
  Fermi energy:                                                -0.26391026482061

  Total energy:                                              -322.35070874038041

 ENERGY| Total FORCE_EVAL ( QS ) energy [hartree]           -322.350718193989621

 OPT| **************************************************************************
 OPT| Step number                                                            120
 OPT| Optimization method                                                   BFGS
 OPT| Total energy [hartree]                                     -322.3507181940
 OPT| Effective energy change [hartree]                            -0.0000010722
 OPT| Predicted energy change [hartree]                            -0.0000007671
 OPT| Scaling factor                                                0.7797712553
 OPT| Step size                                                     0.0043950703
 OPT| Trust radius                                                  0.3779452266
 OPT| Decrease in energy                                                     YES
 OPT| Used time [s]                                                       13.026
 OPT|
 OPT| Maximum step size                                             0.0043950703
 OPT| Convergence limit for maximum step size                       0.0030000000
 OPT| Maximum step size is converged                                          NO
 OPT|
 OPT| RMS step size                                                 0.0010884414
 OPT| Convergence limit for RMS step size                           0.0015000000
 OPT| RMS step size is converged                                             YES
 OPT|
 OPT| Maximum gradient                                              0.0001414786
 OPT| Convergence limit for maximum gradient                        0.0004500000
 OPT| Maximum gradient is converged                                          YES
 OPT|
 OPT| RMS gradient                                                  0.0000370602
 OPT| Convergence limit for RMS gradient                            0.0003000000
 OPT| RMS gradient is converged                                              YES
 OPT| **************************************************************************
 OPT| Estimated peak process memory after this step [MiB]                    716

 --------------------------
 OPTIMIZATION STEP:    121
 --------------------------

 *** WARNING in fm/cp_fm_elpa.F:521 :: Setting real_kernel for ELPA failed ***


 Number of electrons:                                                        218
 Number of occupied orbitals:                                                109
 Number of molecular orbitals:                                               146

 Number of orbital functions:                                                723
 Number of independent orbital functions:                                    723

 *** WARNING in fm/cp_fm_elpa.F:521 :: Setting real_kernel for ELPA failed ***


 Extrapolation method: ASPC


 SCF WAVEFUNCTION OPTIMIZATION

  Step     Update method      Time    Convergence         Total energy    Change
  ------------------------------------------------------------------------------

 *** WARNING in fm/cp_fm_elpa.F:521 :: Setting real_kernel for ELPA failed ***

     1 Broy./Diag. 0.40E+00    1.1     0.00063583      -322.3507154062 -3.22E+02

 *** WARNING in fm/cp_fm_elpa.F:521 :: Setting real_kernel for ELPA failed ***

     2 Broy./Diag. 0.40E+00    1.5     0.00009787      -322.3508559364 -1.41E-04

 *** WARNING in fm/cp_fm_elpa.F:521 :: Setting real_kernel for ELPA failed ***

     3 Broy./Diag. 0.40E+00    1.6     0.00005423      -322.3507136163  1.42E-04

 *** WARNING in fm/cp_fm_elpa.F:521 :: Setting real_kernel for ELPA failed ***

     4 Broy./Diag. 0.40E+00    1.6     0.00003661      -322.3507389064 -2.53E-05

 *** WARNING in fm/cp_fm_elpa.F:521 :: Setting real_kernel for ELPA failed ***

     5 Broy./Diag. 0.40E+00    1.6     0.00000785      -322.3507085069  3.04E-05

 *** WARNING in fm/cp_fm_elpa.F:521 :: Setting real_kernel for ELPA failed ***

     6 Broy./Diag. 0.40E+00    1.6     0.00000189      -322.3507306683 -2.22E-05

 *** WARNING in fm/cp_fm_elpa.F:521 :: Setting real_kernel for ELPA failed ***

     7 Broy./Diag. 0.40E+00    1.7     0.00000048      -322.3507244146  6.25E-06

  *** SCF run converged in     7 steps ***


  Electronic density on regular grids:       -217.9999999988        0.0000000012
  Core density on regular grids:              219.9999999998       -0.0000000002
  Total charge density on r-space grids:        2.0000000011
  Total charge density g-space grids:           2.0000000011

  Overlap energy of the core charge distribution:               0.00001410299889
  Self energy of the core charge distribution:               -766.83425392616255
  Core Hamiltonian energy:                                    231.14418063306042
  Hartree energy:                                             308.92402263021916
  Exchange-correlation energy:                                -95.46741374015019
  Dispersion energy:                                           -0.11727411458006
  Electronic entropic energy:                                  -0.00000000000000
  Fermi energy:                                                -0.26390189023572

  Total energy:                                              -322.35072441461438

 ENERGY| Total FORCE_EVAL ( QS ) energy [hartree]           -322.350719126273191

 OPT| **************************************************************************
 OPT| Step number                                                            121
 OPT| Optimization method                                                   BFGS
 OPT| Total energy [hartree]                                     -322.3507191263
 OPT| Effective energy change [hartree]                            -0.0000009323
 OPT| Predicted energy change [hartree]                            -0.0000006590
 OPT| Scaling factor                                                0.7797712553
 OPT| Step size                                                     0.0037985874
 OPT| Trust radius                                                  0.3779452266
 OPT| Decrease in energy                                                     YES
 OPT| Used time [s]                                                       13.030
 OPT|
 OPT| Maximum step size                                             0.0037985874
 OPT| Convergence limit for maximum step size                       0.0030000000
 OPT| Maximum step size is converged                                          NO
 OPT|
 OPT| RMS step size                                                 0.0009708165
 OPT| Convergence limit for RMS step size                           0.0015000000
 OPT| RMS step size is converged                                             YES
 OPT|
 OPT| Maximum gradient                                              0.0001154010
 OPT| Convergence limit for maximum gradient                        0.0004500000
 OPT| Maximum gradient is converged                                          YES
 OPT|
 OPT| RMS gradient                                                  0.0000341517
 OPT| Convergence limit for RMS gradient                            0.0003000000
 OPT| RMS gradient is converged                                              YES
 OPT| **************************************************************************
 OPT| Estimated peak process memory after this step [MiB]                    716

 --------------------------
 OPTIMIZATION STEP:    122
 --------------------------

 *** WARNING in fm/cp_fm_elpa.F:521 :: Setting real_kernel for ELPA failed ***


 Number of electrons:                                                        218
 Number of occupied orbitals:                                                109
 Number of molecular orbitals:                                               146

 Number of orbital functions:                                                723
 Number of independent orbital functions:                                    723

 *** WARNING in fm/cp_fm_elpa.F:521 :: Setting real_kernel for ELPA failed ***


 Extrapolation method: ASPC


 SCF WAVEFUNCTION OPTIMIZATION

  Step     Update method      Time    Convergence         Total energy    Change
  ------------------------------------------------------------------------------

 *** WARNING in fm/cp_fm_elpa.F:521 :: Setting real_kernel for ELPA failed ***

     1 Broy./Diag. 0.40E+00    1.1     0.00064294      -322.3507155131 -3.22E+02

 *** WARNING in fm/cp_fm_elpa.F:521 :: Setting real_kernel for ELPA failed ***

     2 Broy./Diag. 0.40E+00    1.6     0.00009667      -322.3516184277 -9.03E-04

 *** WARNING in fm/cp_fm_elpa.F:521 :: Setting real_kernel for ELPA failed ***

     3 Broy./Diag. 0.40E+00    1.6     0.00005529      -322.3508791267  7.39E-04

 *** WARNING in fm/cp_fm_elpa.F:521 :: Setting real_kernel for ELPA failed ***

     4 Broy./Diag. 0.40E+00    1.6     0.00003423      -322.3507556842  1.23E-04

 *** WARNING in fm/cp_fm_elpa.F:521 :: Setting real_kernel for ELPA failed ***

     5 Broy./Diag. 0.40E+00    1.6     0.00000851      -322.3506998577  5.58E-05

 *** WARNING in fm/cp_fm_elpa.F:521 :: Setting real_kernel for ELPA failed ***

     6 Broy./Diag. 0.40E+00    1.6     0.00000204      -322.3507457210 -4.59E-05

 *** WARNING in fm/cp_fm_elpa.F:521 :: Setting real_kernel for ELPA failed ***

     7 Broy./Diag. 0.40E+00    1.7     0.00000066      -322.3507402941  5.43E-06

  *** SCF run converged in     7 steps ***


  Electronic density on regular grids:       -217.9999999988        0.0000000012
  Core density on regular grids:              219.9999999998       -0.0000000002
  Total charge density on r-space grids:        2.0000000011
  Total charge density g-space grids:           2.0000000011

  Overlap energy of the core charge distribution:               0.00001410391369
  Self energy of the core charge distribution:               -766.83425392616255
  Core Hamiltonian energy:                                    231.14428206564892
  Hartree energy:                                             308.92394085913440
  Exchange-correlation energy:                                -95.46744885487067
  Dispersion energy:                                           -0.11727454171512
  Electronic entropic energy:                                  -0.00000000000000
  Fermi energy:                                                -0.26389980853467

  Total energy:                                              -322.35074029405132

 ENERGY| Total FORCE_EVAL ( QS ) energy [hartree]           -322.350720066566851

 OPT| **************************************************************************
 OPT| Step number                                                            122
 OPT| Optimization method                                                   BFGS
 OPT| Total energy [hartree]                                     -322.3507200666
 OPT| Effective energy change [hartree]                            -0.0000009403
 OPT| Predicted energy change [hartree]                            -0.0000006533
 OPT| Scaling factor                                                0.7797712553
 OPT| Step size                                                     0.0045556979
 OPT| Trust radius                                                  0.3779452266
 OPT| Decrease in energy                                                     YES
 OPT| Used time [s]                                                       13.021
 OPT|
 OPT| Maximum step size                                             0.0045556979
 OPT| Convergence limit for maximum step size                       0.0030000000
 OPT| Maximum step size is converged                                          NO
 OPT|
 OPT| RMS step size                                                 0.0010900429
 OPT| Convergence limit for RMS step size                           0.0015000000
 OPT| RMS step size is converged                                             YES
 OPT|
 OPT| Maximum gradient                                              0.0001191080
 OPT| Convergence limit for maximum gradient                        0.0004500000
 OPT| Maximum gradient is converged                                          YES
 OPT|
 OPT| RMS gradient                                                  0.0000332539
 OPT| Convergence limit for RMS gradient                            0.0003000000
 OPT| RMS gradient is converged                                              YES
 OPT| **************************************************************************
 OPT| Estimated peak process memory after this step [MiB]                    716

 --------------------------
 OPTIMIZATION STEP:    123
 --------------------------

 *** WARNING in fm/cp_fm_elpa.F:521 :: Setting real_kernel for ELPA failed ***


 Number of electrons:                                                        218
 Number of occupied orbitals:                                                109
 Number of molecular orbitals:                                               146

 Number of orbital functions:                                                723
 Number of independent orbital functions:                                    723

 *** WARNING in fm/cp_fm_elpa.F:521 :: Setting real_kernel for ELPA failed ***


 Extrapolation method: ASPC


 SCF WAVEFUNCTION OPTIMIZATION

  Step     Update method      Time    Convergence         Total energy    Change
  ------------------------------------------------------------------------------

 *** WARNING in fm/cp_fm_elpa.F:521 :: Setting real_kernel for ELPA failed ***

     1 Broy./Diag. 0.40E+00    1.1     0.00075244      -322.3507164992 -3.22E+02

 *** WARNING in fm/cp_fm_elpa.F:521 :: Setting real_kernel for ELPA failed ***

     2 Broy./Diag. 0.40E+00    1.5     0.00010585      -322.3508582792 -1.42E-04

 *** WARNING in fm/cp_fm_elpa.F:521 :: Setting real_kernel for ELPA failed ***

     3 Broy./Diag. 0.40E+00    1.6     0.00004830      -322.3507808254  7.75E-05

 *** WARNING in fm/cp_fm_elpa.F:521 :: Setting real_kernel for ELPA failed ***

     4 Broy./Diag. 0.40E+00    1.6     0.00002781      -322.3506995708  8.13E-05

 *** WARNING in fm/cp_fm_elpa.F:521 :: Setting real_kernel for ELPA failed ***

     5 Broy./Diag. 0.40E+00    1.7     0.00000584      -322.3507382200 -3.86E-05

 *** WARNING in fm/cp_fm_elpa.F:521 :: Setting real_kernel for ELPA failed ***

     6 Broy./Diag. 0.40E+00    1.7     0.00000157      -322.3507445726 -6.35E-06

 *** WARNING in fm/cp_fm_elpa.F:521 :: Setting real_kernel for ELPA failed ***

     7 Broy./Diag. 0.40E+00    1.7     0.00000100      -322.3507390264  5.55E-06

 *** WARNING in fm/cp_fm_elpa.F:521 :: Setting real_kernel for ELPA failed ***

     8 Broy./Diag. 0.40E+00    1.7     0.00000105      -322.3507303410  8.69E-06

 *** WARNING in fm/cp_fm_elpa.F:521 :: Setting real_kernel for ELPA failed ***

     9 Broy./Diag. 0.40E+00    1.8     0.00000043      -322.3507245275  5.81E-06

  *** SCF run converged in     9 steps ***


  Electronic density on regular grids:       -217.9999999988        0.0000000012
  Core density on regular grids:              219.9999999998       -0.0000000002
  Total charge density on r-space grids:        2.0000000011
  Total charge density g-space grids:           2.0000000011

  Overlap energy of the core charge distribution:               0.00001410629934
  Self energy of the core charge distribution:               -766.83425392616255
  Core Hamiltonian energy:                                    231.14525564926100
  Hartree energy:                                             308.92322523865914
  Exchange-correlation energy:                                -95.46768995319424
  Dispersion energy:                                           -0.11727564235503
  Electronic entropic energy:                                  -0.00000000000000
  Fermi energy:                                                -0.26389767593790

  Total energy:                                              -322.35072452749233

 ENERGY| Total FORCE_EVAL ( QS ) energy [hartree]           -322.350721100870430

 OPT| **************************************************************************
 OPT| Step number                                                            123
 OPT| Optimization method                                                   BFGS
 OPT| Total energy [hartree]                                     -322.3507211009
 OPT| Effective energy change [hartree]                            -0.0000010343
 OPT| Predicted energy change [hartree]                            -0.0000007249
 OPT| Scaling factor                                                0.7797712553
 OPT| Step size                                                     0.0047432129
 OPT| Trust radius                                                  0.3779452266
 OPT| Decrease in energy                                                     YES
 OPT| Used time [s]                                                       16.732
 OPT|
 OPT| Maximum step size                                             0.0047432129
 OPT| Convergence limit for maximum step size                       0.0030000000
 OPT| Maximum step size is converged                                          NO
 OPT|
 OPT| RMS step size                                                 0.0010332182
 OPT| Convergence limit for RMS step size                           0.0015000000
 OPT| RMS step size is converged                                             YES
 OPT|
 OPT| Maximum gradient                                              0.0001766131
 OPT| Convergence limit for maximum gradient                        0.0004500000
 OPT| Maximum gradient is converged                                          YES
 OPT|
 OPT| RMS gradient                                                  0.0000358680
 OPT| Convergence limit for RMS gradient                            0.0003000000
 OPT| RMS gradient is converged                                              YES
 OPT| **************************************************************************
 OPT| Estimated peak process memory after this step [MiB]                    716

 --------------------------
 OPTIMIZATION STEP:    124
 --------------------------

 *** WARNING in fm/cp_fm_elpa.F:521 :: Setting real_kernel for ELPA failed ***


 Number of electrons:                                                        218
 Number of occupied orbitals:                                                109
 Number of molecular orbitals:                                               146

 Number of orbital functions:                                                723
 Number of independent orbital functions:                                    723

 *** WARNING in fm/cp_fm_elpa.F:521 :: Setting real_kernel for ELPA failed ***


 Extrapolation method: ASPC


 SCF WAVEFUNCTION OPTIMIZATION

  Step     Update method      Time    Convergence         Total energy    Change
  ------------------------------------------------------------------------------

 *** WARNING in fm/cp_fm_elpa.F:521 :: Setting real_kernel for ELPA failed ***

     1 Broy./Diag. 0.40E+00    1.2     0.00081426      -322.3507156390 -3.22E+02

 *** WARNING in fm/cp_fm_elpa.F:521 :: Setting real_kernel for ELPA failed ***

     2 Broy./Diag. 0.40E+00    1.6     0.00008755      -322.3518722408 -1.16E-03

 *** WARNING in fm/cp_fm_elpa.F:521 :: Setting real_kernel for ELPA failed ***

     3 Broy./Diag. 0.40E+00    1.7     0.00004977      -322.3509402257  9.32E-04

 *** WARNING in fm/cp_fm_elpa.F:521 :: Setting real_kernel for ELPA failed ***

     4 Broy./Diag. 0.40E+00    1.7     0.00003109      -322.3507530248  1.87E-04

 *** WARNING in fm/cp_fm_elpa.F:521 :: Setting real_kernel for ELPA failed ***

     5 Broy./Diag. 0.40E+00    1.7     0.00001096      -322.3507095102  4.35E-05

 *** WARNING in fm/cp_fm_elpa.F:521 :: Setting real_kernel for ELPA failed ***

     6 Broy./Diag. 0.40E+00    1.7     0.00000336      -322.3507616369 -5.21E-05

 *** WARNING in fm/cp_fm_elpa.F:521 :: Setting real_kernel for ELPA failed ***

     7 Broy./Diag. 0.40E+00    1.7     0.00000120      -322.3507514547  1.02E-05

 *** WARNING in fm/cp_fm_elpa.F:521 :: Setting real_kernel for ELPA failed ***

     8 Broy./Diag. 0.40E+00    1.8     0.00000103      -322.3507389299  1.25E-05

 *** WARNING in fm/cp_fm_elpa.F:521 :: Setting real_kernel for ELPA failed ***

     9 Broy./Diag. 0.40E+00    1.8     0.00000040      -322.3507298664  9.06E-06

  *** SCF run converged in     9 steps ***


  Electronic density on regular grids:       -217.9999999988        0.0000000012
  Core density on regular grids:              219.9999999998       -0.0000000002
  Total charge density on r-space grids:        2.0000000011
  Total charge density g-space grids:           2.0000000011

  Overlap energy of the core charge distribution:               0.00001410772805
  Self energy of the core charge distribution:               -766.83425392616255
  Core Hamiltonian energy:                                    231.14588636876809
  Hartree energy:                                             308.92276051167943
  Exchange-correlation energy:                                -95.46785960143875
  Dispersion energy:                                           -0.11727732701529
  Electronic entropic energy:                                  -0.00000000000000
  Fermi energy:                                                -0.26390168632548

  Total energy:                                              -322.35072986644110

 ENERGY| Total FORCE_EVAL ( QS ) energy [hartree]           -322.350722163884654

 OPT| **************************************************************************
 OPT| Step number                                                            124
 OPT| Optimization method                                                   BFGS
 OPT| Total energy [hartree]                                     -322.3507221639
 OPT| Effective energy change [hartree]                            -0.0000010630
 OPT| Predicted energy change [hartree]                            -0.0000007348
 OPT| Scaling factor                                                0.7797712553
 OPT| Step size                                                     0.0067705954
 OPT| Trust radius                                                  0.3779452266
 OPT| Decrease in energy                                                     YES
 OPT| Used time [s]                                                       17.106
 OPT|
 OPT| Maximum step size                                             0.0067705954
 OPT| Convergence limit for maximum step size                       0.0030000000
 OPT| Maximum step size is converged                                          NO
 OPT|
 OPT| RMS step size                                                 0.0013200843
 OPT| Convergence limit for RMS step size                           0.0015000000
 OPT| RMS step size is converged                                             YES
 OPT|
 OPT| Maximum gradient                                              0.0001449021
 OPT| Convergence limit for maximum gradient                        0.0004500000
 OPT| Maximum gradient is converged                                          YES
 OPT|
 OPT| RMS gradient                                                  0.0000383803
 OPT| Convergence limit for RMS gradient                            0.0003000000
 OPT| RMS gradient is converged                                              YES
 OPT| **************************************************************************
 OPT| Estimated peak process memory after this step [MiB]                    716

 --------------------------
 OPTIMIZATION STEP:    125
 --------------------------

 *** WARNING in fm/cp_fm_elpa.F:521 :: Setting real_kernel for ELPA failed ***


 Number of electrons:                                                        218
 Number of occupied orbitals:                                                109
 Number of molecular orbitals:                                               146

 Number of orbital functions:                                                723
 Number of independent orbital functions:                                    723

 *** WARNING in fm/cp_fm_elpa.F:521 :: Setting real_kernel for ELPA failed ***


 Extrapolation method: ASPC


 SCF WAVEFUNCTION OPTIMIZATION

  Step     Update method      Time    Convergence         Total energy    Change
  ------------------------------------------------------------------------------

 *** WARNING in fm/cp_fm_elpa.F:521 :: Setting real_kernel for ELPA failed ***

     1 Broy./Diag. 0.40E+00    1.2     0.00146764      -322.3507147534 -3.22E+02

 *** WARNING in fm/cp_fm_elpa.F:521 :: Setting real_kernel for ELPA failed ***

     2 Broy./Diag. 0.40E+00    1.6     0.00014953      -322.3504659948  2.49E-04

 *** WARNING in fm/cp_fm_elpa.F:521 :: Setting real_kernel for ELPA failed ***

     3 Broy./Diag. 0.40E+00    1.7     0.00004948      -322.3507550579 -2.89E-04

 *** WARNING in fm/cp_fm_elpa.F:521 :: Setting real_kernel for ELPA failed ***

     4 Broy./Diag. 0.40E+00    1.7     0.00004018      -322.3507111302  4.39E-05

 *** WARNING in fm/cp_fm_elpa.F:521 :: Setting real_kernel for ELPA failed ***

     5 Broy./Diag. 0.40E+00    1.7     0.00000865      -322.3507867478 -7.56E-05

 *** WARNING in fm/cp_fm_elpa.F:521 :: Setting real_kernel for ELPA failed ***

     6 Broy./Diag. 0.40E+00    1.7     0.00000315      -322.3507592816  2.75E-05

 *** WARNING in fm/cp_fm_elpa.F:521 :: Setting real_kernel for ELPA failed ***

     7 Broy./Diag. 0.40E+00    1.7     0.00000193      -322.3507517607  7.52E-06

 *** WARNING in fm/cp_fm_elpa.F:521 :: Setting real_kernel for ELPA failed ***

     8 Broy./Diag. 0.40E+00    1.8     0.00000191      -322.3507350411  1.67E-05

 *** WARNING in fm/cp_fm_elpa.F:521 :: Setting real_kernel for ELPA failed ***

     9 Broy./Diag. 0.40E+00    1.8     0.00000106      -322.3507300839  4.96E-06

 *** WARNING in fm/cp_fm_elpa.F:521 :: Setting real_kernel for ELPA failed ***

    10 Broy./Diag. 0.40E+00    1.9     0.00000098      -322.3507254455  4.64E-06

  *** SCF run converged in    10 steps ***


  Electronic density on regular grids:       -217.9999999988        0.0000000012
  Core density on regular grids:              219.9999999998       -0.0000000002
  Total charge density on r-space grids:        2.0000000011
  Total charge density g-space grids:           2.0000000011

  Overlap energy of the core charge distribution:               0.00001410967440
  Self energy of the core charge distribution:               -766.83425392616255
  Core Hamiltonian energy:                                    231.14671458595043
  Hartree energy:                                             308.92213922964220
  Exchange-correlation energy:                                -95.46806084009512
  Dispersion energy:                                           -0.11727860450349
  Electronic entropic energy:                                  -0.00000000000000
  Fermi energy:                                                -0.26389275246221

  Total energy:                                              -322.35072544549405

 ENERGY| Total FORCE_EVAL ( QS ) energy [hartree]           -322.350723351441900

 OPT| **************************************************************************
 OPT| Step number                                                            125
 OPT| Optimization method                                                   BFGS
 OPT| Total energy [hartree]                                     -322.3507233514
 OPT| Effective energy change [hartree]                            -0.0000011876
 OPT| Predicted energy change [hartree]                            -0.0000008252
 OPT| Scaling factor                                                0.7797712553
 OPT| Step size                                                     0.0086797738
 OPT| Trust radius                                                  0.3779452266
 OPT| Decrease in energy                                                     YES
 OPT| Used time [s]                                                       18.970
 OPT|
 OPT| Maximum step size                                             0.0086797738
 OPT| Convergence limit for maximum step size                       0.0030000000
 OPT| Maximum step size is converged                                          NO
 OPT|
 OPT| RMS step size                                                 0.0014007884
 OPT| Convergence limit for RMS step size                           0.0015000000
 OPT| RMS step size is converged                                             YES
 OPT|
 OPT| Maximum gradient                                              0.0001565595
 OPT| Convergence limit for maximum gradient                        0.0004500000
 OPT| Maximum gradient is converged                                          YES
 OPT|
 OPT| RMS gradient                                                  0.0000411021
 OPT| Convergence limit for RMS gradient                            0.0003000000
 OPT| RMS gradient is converged                                              YES
 OPT| **************************************************************************
 OPT| Estimated peak process memory after this step [MiB]                    716

 --------------------------
 OPTIMIZATION STEP:    126
 --------------------------

 *** WARNING in fm/cp_fm_elpa.F:521 :: Setting real_kernel for ELPA failed ***


 Number of electrons:                                                        218
 Number of occupied orbitals:                                                109
 Number of molecular orbitals:                                               146

 Number of orbital functions:                                                723
 Number of independent orbital functions:                                    723

 *** WARNING in fm/cp_fm_elpa.F:521 :: Setting real_kernel for ELPA failed ***


 Extrapolation method: ASPC


 SCF WAVEFUNCTION OPTIMIZATION

  Step     Update method      Time    Convergence         Total energy    Change
  ------------------------------------------------------------------------------

 *** WARNING in fm/cp_fm_elpa.F:521 :: Setting real_kernel for ELPA failed ***

     1 Broy./Diag. 0.40E+00    1.2     0.00126955      -322.3507096556 -3.22E+02

 *** WARNING in fm/cp_fm_elpa.F:521 :: Setting real_kernel for ELPA failed ***

     2 Broy./Diag. 0.40E+00    1.6     0.00010231      -322.3518667750 -1.16E-03

 *** WARNING in fm/cp_fm_elpa.F:521 :: Setting real_kernel for ELPA failed ***

     3 Broy./Diag. 0.40E+00    1.7     0.00005741      -322.3509270935  9.40E-04

 *** WARNING in fm/cp_fm_elpa.F:521 :: Setting real_kernel for ELPA failed ***

     4 Broy./Diag. 0.40E+00    1.7     0.00003157      -322.3507189744  2.08E-04

 *** WARNING in fm/cp_fm_elpa.F:521 :: Setting real_kernel for ELPA failed ***

     5 Broy./Diag. 0.40E+00    1.7     0.00001374      -322.3507107363  8.24E-06

 *** WARNING in fm/cp_fm_elpa.F:521 :: Setting real_kernel for ELPA failed ***

     6 Broy./Diag. 0.40E+00    1.7     0.00000608      -322.3507600953 -4.94E-05

 *** WARNING in fm/cp_fm_elpa.F:521 :: Setting real_kernel for ELPA failed ***

     7 Broy./Diag. 0.40E+00    1.7     0.00000249      -322.3507418888  1.82E-05

 *** WARNING in fm/cp_fm_elpa.F:521 :: Setting real_kernel for ELPA failed ***

     8 Broy./Diag. 0.40E+00    1.8     0.00000167      -322.3507314133  1.05E-05

 *** WARNING in fm/cp_fm_elpa.F:521 :: Setting real_kernel for ELPA failed ***

     9 Broy./Diag. 0.40E+00    1.8     0.00000096      -322.3507273146  4.10E-06

  *** SCF run converged in     9 steps ***


  Electronic density on regular grids:       -217.9999999988        0.0000000012
  Core density on regular grids:              219.9999999998       -0.0000000002
  Total charge density on r-space grids:        2.0000000011
  Total charge density g-space grids:           2.0000000011

  Overlap energy of the core charge distribution:               0.00001410779092
  Self energy of the core charge distribution:               -766.83425392616255
  Core Hamiltonian energy:                                    231.14644787052003
  Hartree energy:                                             308.92231859851006
  Exchange-correlation energy:                                -95.46797199999179
  Dispersion energy:                                           -0.11728196524515
  Electronic entropic energy:                                  -0.00000000000000
  Fermi energy:                                                -0.26390404315532

  Total energy:                                              -322.35072731457842

 ENERGY| Total FORCE_EVAL ( QS ) energy [hartree]           -322.350724672950435

 OPT| **************************************************************************
 OPT| Step number                                                            126
 OPT| Optimization method                                                   BFGS
 OPT| Total energy [hartree]                                     -322.3507246730
 OPT| Effective energy change [hartree]                            -0.0000013215
 OPT| Predicted energy change [hartree]                            -0.0000009648
 OPT| Scaling factor                                                0.7797712553
 OPT| Step size                                                     0.0096373809
 OPT| Trust radius                                                  0.3779452266
 OPT| Decrease in energy                                                     YES
 OPT| Used time [s]                                                       17.117
 OPT|
 OPT| Maximum step size                                             0.0096373809
 OPT| Convergence limit for maximum step size                       0.0030000000
 OPT| Maximum step size is converged                                          NO
 OPT|
 OPT| RMS step size                                                 0.0019741688
 OPT| Convergence limit for RMS step size                           0.0015000000
 OPT| RMS step size is converged                                              NO
 OPT|
 OPT| Maximum gradient                                              0.0001646307
 OPT| Convergence limit for maximum gradient                        0.0004500000
 OPT| Maximum gradient is converged                                          YES
 OPT|
 OPT| RMS gradient                                                  0.0000419258
 OPT| Convergence limit for RMS gradient                            0.0003000000
 OPT| RMS gradient is converged                                              YES
 OPT| **************************************************************************
 OPT| Estimated peak process memory after this step [MiB]                    716

 --------------------------
 OPTIMIZATION STEP:    127
 --------------------------

 *** WARNING in fm/cp_fm_elpa.F:521 :: Setting real_kernel for ELPA failed ***


 Number of electrons:                                                        218
 Number of occupied orbitals:                                                109
 Number of molecular orbitals:                                               146

 Number of orbital functions:                                                723
 Number of independent orbital functions:                                    723

 *** WARNING in fm/cp_fm_elpa.F:521 :: Setting real_kernel for ELPA failed ***


 Extrapolation method: ASPC


 SCF WAVEFUNCTION OPTIMIZATION

  Step     Update method      Time    Convergence         Total energy    Change
  ------------------------------------------------------------------------------

 *** WARNING in fm/cp_fm_elpa.F:521 :: Setting real_kernel for ELPA failed ***

     1 Broy./Diag. 0.40E+00    1.2     0.00192447      -322.3507109129 -3.22E+02

 *** WARNING in fm/cp_fm_elpa.F:521 :: Setting real_kernel for ELPA failed ***

     2 Broy./Diag. 0.40E+00    1.6     0.00012397      -322.3501749995  5.36E-04

 *** WARNING in fm/cp_fm_elpa.F:521 :: Setting real_kernel for ELPA failed ***

     3 Broy./Diag. 0.40E+00    1.7     0.00007888      -322.3506109633 -4.36E-04

 *** WARNING in fm/cp_fm_elpa.F:521 :: Setting real_kernel for ELPA failed ***

     4 Broy./Diag. 0.40E+00    1.7     0.00004416      -322.3507857011 -1.75E-04

 *** WARNING in fm/cp_fm_elpa.F:521 :: Setting real_kernel for ELPA failed ***

     5 Broy./Diag. 0.40E+00    1.7     0.00001352      -322.3507658096  1.99E-05

 *** WARNING in fm/cp_fm_elpa.F:521 :: Setting real_kernel for ELPA failed ***

     6 Broy./Diag. 0.40E+00    1.7     0.00000433      -322.3507505354  1.53E-05

 *** WARNING in fm/cp_fm_elpa.F:521 :: Setting real_kernel for ELPA failed ***

     7 Broy./Diag. 0.40E+00    1.7     0.00000157      -322.3507417543  8.78E-06

 *** WARNING in fm/cp_fm_elpa.F:521 :: Setting real_kernel for ELPA failed ***

     8 Broy./Diag. 0.40E+00    1.7     0.00000147      -322.3507354276  6.33E-06

 *** WARNING in fm/cp_fm_elpa.F:521 :: Setting real_kernel for ELPA failed ***

     9 Broy./Diag. 0.40E+00    1.7     0.00000088      -322.3507294824  5.95E-06

  *** SCF run converged in     9 steps ***


  Electronic density on regular grids:       -217.9999999988        0.0000000012
  Core density on regular grids:              219.9999999998       -0.0000000002
  Total charge density on r-space grids:        2.0000000011
  Total charge density g-space grids:           2.0000000011

  Overlap energy of the core charge distribution:               0.00001410847285
  Self energy of the core charge distribution:               -766.83425392616255
  Core Hamiltonian energy:                                    231.14618047164930
  Hartree energy:                                             308.92250432223165
  Exchange-correlation energy:                                -95.46789305936947
  Dispersion energy:                                           -0.11728139926480
  Electronic entropic energy:                                  -0.00000000000000
  Fermi energy:                                                -0.26388748919829

  Total energy:                                              -322.35072948244294

 ENERGY| Total FORCE_EVAL ( QS ) energy [hartree]           -322.350726120096851

 OPT| **************************************************************************
 OPT| Step number                                                            127
 OPT| Optimization method                                                   BFGS
 OPT| Total energy [hartree]                                     -322.3507261201
 OPT| Effective energy change [hartree]                            -0.0000014471
 OPT| Predicted energy change [hartree]                            -0.0000009913
 OPT| Scaling factor                                                0.7797712553
 OPT| Step size                                                     0.0087888085
 OPT| Trust radius                                                  0.3779452266
 OPT| Decrease in energy                                                     YES
 OPT| Used time [s]                                                       16.983
 OPT|
 OPT| Maximum step size                                             0.0087888085
 OPT| Convergence limit for maximum step size                       0.0030000000
 OPT| Maximum step size is converged                                          NO
 OPT|
 OPT| RMS step size                                                 0.0016959628
 OPT| Convergence limit for RMS step size                           0.0015000000
 OPT| RMS step size is converged                                              NO
 OPT|
 OPT| Maximum gradient                                              0.0002138529
 OPT| Convergence limit for maximum gradient                        0.0004500000
 OPT| Maximum gradient is converged                                          YES
 OPT|
 OPT| RMS gradient                                                  0.0000420092
 OPT| Convergence limit for RMS gradient                            0.0003000000
 OPT| RMS gradient is converged                                              YES
 OPT| **************************************************************************
 OPT| Estimated peak process memory after this step [MiB]                    716

 --------------------------
 OPTIMIZATION STEP:    128
 --------------------------

 *** WARNING in fm/cp_fm_elpa.F:521 :: Setting real_kernel for ELPA failed ***


 Number of electrons:                                                        218
 Number of occupied orbitals:                                                109
 Number of molecular orbitals:                                               146

 Number of orbital functions:                                                723
 Number of independent orbital functions:                                    723

 *** WARNING in fm/cp_fm_elpa.F:521 :: Setting real_kernel for ELPA failed ***


 Extrapolation method: ASPC


 SCF WAVEFUNCTION OPTIMIZATION

  Step     Update method      Time    Convergence         Total energy    Change
  ------------------------------------------------------------------------------

 *** WARNING in fm/cp_fm_elpa.F:521 :: Setting real_kernel for ELPA failed ***

     1 Broy./Diag. 0.40E+00    1.2     0.00168367      -322.3507030568 -3.22E+02

 *** WARNING in fm/cp_fm_elpa.F:521 :: Setting real_kernel for ELPA failed ***

     2 Broy./Diag. 0.40E+00    1.6     0.00022265      -322.3523393234 -1.64E-03

 *** WARNING in fm/cp_fm_elpa.F:521 :: Setting real_kernel for ELPA failed ***

     3 Broy./Diag. 0.40E+00    1.6     0.00013066      -322.3509547050  1.38E-03

 *** WARNING in fm/cp_fm_elpa.F:521 :: Setting real_kernel for ELPA failed ***

     4 Broy./Diag. 0.40E+00    1.7     0.00008394      -322.3508060532  1.49E-04

 *** WARNING in fm/cp_fm_elpa.F:521 :: Setting real_kernel for ELPA failed ***

     5 Broy./Diag. 0.40E+00    1.7     0.00001737      -322.3506924365  1.14E-04

 *** WARNING in fm/cp_fm_elpa.F:521 :: Setting real_kernel for ELPA failed ***

     6 Broy./Diag. 0.40E+00    1.7     0.00000484      -322.3507722765 -7.98E-05

 *** WARNING in fm/cp_fm_elpa.F:521 :: Setting real_kernel for ELPA failed ***

     7 Broy./Diag. 0.40E+00    1.7     0.00000215      -322.3507518712  2.04E-05

 *** WARNING in fm/cp_fm_elpa.F:521 :: Setting real_kernel for ELPA failed ***

     8 Broy./Diag. 0.40E+00    1.8     0.00000178      -322.3507394871  1.24E-05

 *** WARNING in fm/cp_fm_elpa.F:521 :: Setting real_kernel for ELPA failed ***

     9 Broy./Diag. 0.40E+00    1.8     0.00000091      -322.3507338907  5.60E-06

  *** SCF run converged in     9 steps ***


  Electronic density on regular grids:       -217.9999999988        0.0000000012
  Core density on regular grids:              219.9999999998       -0.0000000002
  Total charge density on r-space grids:        2.0000000011
  Total charge density g-space grids:           2.0000000011

  Overlap energy of the core charge distribution:               0.00001410543137
  Self energy of the core charge distribution:               -766.83425392616255
  Core Hamiltonian energy:                                    231.14501352609696
  Hartree energy:                                             308.92333027159611
  Exchange-correlation energy:                                -95.46755601606728
  Dispersion energy:                                           -0.11728185159767
  Electronic entropic energy:                                  -0.00000000000000
  Fermi energy:                                                -0.26388039309817

  Total energy:                                              -322.35073389070317

 ENERGY| Total FORCE_EVAL ( QS ) energy [hartree]           -322.350727779053045

 OPT| **************************************************************************
 OPT| Step number                                                            128
 OPT| Optimization method                                                   BFGS
 OPT| Total energy [hartree]                                     -322.3507277791
 OPT| Effective energy change [hartree]                            -0.0000016590
 OPT| Predicted energy change [hartree]                            -0.0000012229
 OPT| Scaling factor                                                0.7797712553
 OPT| Step size                                                     0.0106592994
 OPT| Trust radius                                                  0.3779452266
 OPT| Decrease in energy                                                     YES
 OPT| Used time [s]                                                       17.053
 OPT|
 OPT| Maximum step size                                             0.0106592994
 OPT| Convergence limit for maximum step size                       0.0030000000
 OPT| Maximum step size is converged                                          NO
 OPT|
 OPT| RMS step size                                                 0.0024422931
 OPT| Convergence limit for RMS step size                           0.0015000000
 OPT| RMS step size is converged                                              NO
 OPT|
 OPT| Maximum gradient                                              0.0002012077
 OPT| Convergence limit for maximum gradient                        0.0004500000
 OPT| Maximum gradient is converged                                          YES
 OPT|
 OPT| RMS gradient                                                  0.0000452701
 OPT| Convergence limit for RMS gradient                            0.0003000000
 OPT| RMS gradient is converged                                              YES
 OPT| **************************************************************************
 OPT| Estimated peak process memory after this step [MiB]                    716

 --------------------------
 OPTIMIZATION STEP:    129
 --------------------------

 *** WARNING in fm/cp_fm_elpa.F:521 :: Setting real_kernel for ELPA failed ***


 Number of electrons:                                                        218
 Number of occupied orbitals:                                                109
 Number of molecular orbitals:                                               146

 Number of orbital functions:                                                723
 Number of independent orbital functions:                                    723

 *** WARNING in fm/cp_fm_elpa.F:521 :: Setting real_kernel for ELPA failed ***


 Extrapolation method: ASPC


 SCF WAVEFUNCTION OPTIMIZATION

  Step     Update method      Time    Convergence         Total energy    Change
  ------------------------------------------------------------------------------

 *** WARNING in fm/cp_fm_elpa.F:521 :: Setting real_kernel for ELPA failed ***

     1 Broy./Diag. 0.40E+00    1.2     0.00158645      -322.3507107768 -3.22E+02

 *** WARNING in fm/cp_fm_elpa.F:521 :: Setting real_kernel for ELPA failed ***

     2 Broy./Diag. 0.40E+00    1.6     0.00016489      -322.3504122420  2.99E-04

 *** WARNING in fm/cp_fm_elpa.F:521 :: Setting real_kernel for ELPA failed ***

     3 Broy./Diag. 0.40E+00    1.6     0.00010424      -322.3505937895 -1.82E-04

 *** WARNING in fm/cp_fm_elpa.F:521 :: Setting real_kernel for ELPA failed ***

     4 Broy./Diag. 0.40E+00    1.7     0.00006195      -322.3508373424 -2.44E-04

 *** WARNING in fm/cp_fm_elpa.F:521 :: Setting real_kernel for ELPA failed ***

     5 Broy./Diag. 0.40E+00    1.7     0.00002074      -322.3507663740  7.10E-05

 *** WARNING in fm/cp_fm_elpa.F:521 :: Setting real_kernel for ELPA failed ***

     6 Broy./Diag. 0.40E+00    1.6     0.00000639      -322.3507827569 -1.64E-05

 *** WARNING in fm/cp_fm_elpa.F:521 :: Setting real_kernel for ELPA failed ***

     7 Broy./Diag. 0.40E+00    1.6     0.00000272      -322.3507606638  2.21E-05

 *** WARNING in fm/cp_fm_elpa.F:521 :: Setting real_kernel for ELPA failed ***

     8 Broy./Diag. 0.40E+00    1.6     0.00000250      -322.3507475501  1.31E-05

 *** WARNING in fm/cp_fm_elpa.F:521 :: Setting real_kernel for ELPA failed ***

     9 Broy./Diag. 0.40E+00    1.6     0.00000160      -322.3507365710  1.10E-05

 *** WARNING in fm/cp_fm_elpa.F:521 :: Setting real_kernel for ELPA failed ***

    10 Broy./Diag. 0.40E+00    1.7     0.00000141      -322.3507338375  2.73E-06

 *** WARNING in fm/cp_fm_elpa.F:521 :: Setting real_kernel for ELPA failed ***

    11 Broy./Diag. 0.40E+00    1.7     0.00000085      -322.3507303481  3.49E-06

  *** SCF run converged in    11 steps ***


  Electronic density on regular grids:       -217.9999999988        0.0000000012
  Core density on regular grids:              219.9999999998       -0.0000000002
  Total charge density on r-space grids:        2.0000000011
  Total charge density g-space grids:           2.0000000011

  Overlap energy of the core charge distribution:               0.00001410638567
  Self energy of the core charge distribution:               -766.83425392616255
  Core Hamiltonian energy:                                    231.14482369286353
  Hartree energy:                                             308.92345727038378
  Exchange-correlation energy:                                -95.46748894652026
  Dispersion energy:                                           -0.11728254500282
  Electronic entropic energy:                                  -0.00000000000000
  Fermi energy:                                                -0.26386959189298

  Total energy:                                              -322.35073034805259

 ENERGY| Total FORCE_EVAL ( QS ) energy [hartree]           -322.350729148138612

 OPT| **************************************************************************
 OPT| Step number                                                            129
 OPT| Optimization method                                                   BFGS
 OPT| Total energy [hartree]                                     -322.3507291481
 OPT| Effective energy change [hartree]                            -0.0000013691
 OPT| Predicted energy change [hartree]                            -0.0000010075
 OPT| Scaling factor                                                0.7797712553
 OPT| Step size                                                     0.0084977440
 OPT| Trust radius                                                  0.3779452266
 OPT| Decrease in energy                                                     YES
 OPT| Used time [s]                                                       19.640
 OPT|
 OPT| Maximum step size                                             0.0084977440
 OPT| Convergence limit for maximum step size                       0.0030000000
 OPT| Maximum step size is converged                                          NO
 OPT|
 OPT| RMS step size                                                 0.0018731865
 OPT| Convergence limit for RMS step size                           0.0015000000
 OPT| RMS step size is converged                                              NO
 OPT|
 OPT| Maximum gradient                                              0.0001730116
 OPT| Convergence limit for maximum gradient                        0.0004500000
 OPT| Maximum gradient is converged                                          YES
 OPT|
 OPT| RMS gradient                                                  0.0000477499
 OPT| Convergence limit for RMS gradient                            0.0003000000
 OPT| RMS gradient is converged                                              YES
 OPT| **************************************************************************
 OPT| Estimated peak process memory after this step [MiB]                    716

 --------------------------
 OPTIMIZATION STEP:    130
 --------------------------

 *** WARNING in fm/cp_fm_elpa.F:521 :: Setting real_kernel for ELPA failed ***


 Number of electrons:                                                        218
 Number of occupied orbitals:                                                109
 Number of molecular orbitals:                                               146

 Number of orbital functions:                                                723
 Number of independent orbital functions:                                    723

 *** WARNING in fm/cp_fm_elpa.F:521 :: Setting real_kernel for ELPA failed ***


 Extrapolation method: ASPC


 SCF WAVEFUNCTION OPTIMIZATION

  Step     Update method      Time    Convergence         Total energy    Change
  ------------------------------------------------------------------------------

 *** WARNING in fm/cp_fm_elpa.F:521 :: Setting real_kernel for ELPA failed ***

     1 Broy./Diag. 0.40E+00    1.1     0.00148010      -322.3507131861 -3.22E+02

 *** WARNING in fm/cp_fm_elpa.F:521 :: Setting real_kernel for ELPA failed ***

     2 Broy./Diag. 0.40E+00    1.5     0.00016511      -322.3517004378 -9.87E-04

 *** WARNING in fm/cp_fm_elpa.F:521 :: Setting real_kernel for ELPA failed ***

     3 Broy./Diag. 0.40E+00    1.5     0.00006669      -322.3508743768  8.26E-04

 *** WARNING in fm/cp_fm_elpa.F:521 :: Setting real_kernel for ELPA failed ***

     4 Broy./Diag. 0.40E+00    1.5     0.00005089      -322.3507339119  1.40E-04

 *** WARNING in fm/cp_fm_elpa.F:521 :: Setting real_kernel for ELPA failed ***

     5 Broy./Diag. 0.40E+00    1.5     0.00001176      -322.3506961728  3.77E-05

 *** WARNING in fm/cp_fm_elpa.F:521 :: Setting real_kernel for ELPA failed ***

     6 Broy./Diag. 0.40E+00    1.5     0.00000381      -322.3507354483 -3.93E-05

 *** WARNING in fm/cp_fm_elpa.F:521 :: Setting real_kernel for ELPA failed ***

     7 Broy./Diag. 0.40E+00    1.6     0.00000088      -322.3507296195  5.83E-06

  *** SCF run converged in     7 steps ***


  Electronic density on regular grids:       -217.9999999988        0.0000000012
  Core density on regular grids:              219.9999999998       -0.0000000002
  Total charge density on r-space grids:        2.0000000011
  Total charge density g-space grids:           2.0000000011

  Overlap energy of the core charge distribution:               0.00001410616101
  Self energy of the core charge distribution:               -766.83425392616255
  Core Hamiltonian energy:                                    231.14466814883971
  Hartree energy:                                             308.92355197275123
  Exchange-correlation energy:                                -95.46742681964912
  Dispersion energy:                                           -0.11728310141829
  Electronic entropic energy:                                  -0.00000000000000
  Fermi energy:                                                -0.26387059079540

  Total energy:                                              -322.35072961947805

 ENERGY| Total FORCE_EVAL ( QS ) energy [hartree]           -322.350730381994879

 OPT| **************************************************************************
 OPT| Step number                                                            130
 OPT| Optimization method                                                   BFGS
 OPT| Total energy [hartree]                                     -322.3507303820
 OPT| Effective energy change [hartree]                            -0.0000012339
 OPT| Predicted energy change [hartree]                            -0.0000008790
 OPT| Scaling factor                                                0.7797712553
 OPT| Step size                                                     0.0090992616
 OPT| Trust radius                                                  0.3779452266
 OPT| Decrease in energy                                                     YES
 OPT| Used time [s]                                                       12.259
 OPT|
 OPT| Maximum step size                                             0.0090992616
 OPT| Convergence limit for maximum step size                       0.0030000000
 OPT| Maximum step size is converged                                          NO
 OPT|
 OPT| RMS step size                                                 0.0019248004
 OPT| Convergence limit for RMS step size                           0.0015000000
 OPT| RMS step size is converged                                              NO
 OPT|
 OPT| Maximum gradient                                              0.0001868830
 OPT| Convergence limit for maximum gradient                        0.0004500000
 OPT| Maximum gradient is converged                                          YES
 OPT|
 OPT| RMS gradient                                                  0.0000443992
 OPT| Convergence limit for RMS gradient                            0.0003000000
 OPT| RMS gradient is converged                                              YES
 OPT| **************************************************************************
 OPT| Estimated peak process memory after this step [MiB]                    716

 --------------------------
 OPTIMIZATION STEP:    131
 --------------------------

 *** WARNING in fm/cp_fm_elpa.F:521 :: Setting real_kernel for ELPA failed ***


 Number of electrons:                                                        218
 Number of occupied orbitals:                                                109
 Number of molecular orbitals:                                               146

 Number of orbital functions:                                                723
 Number of independent orbital functions:                                    723

 *** WARNING in fm/cp_fm_elpa.F:521 :: Setting real_kernel for ELPA failed ***


 Extrapolation method: ASPC


 SCF WAVEFUNCTION OPTIMIZATION

  Step     Update method      Time    Convergence         Total energy    Change
  ------------------------------------------------------------------------------

 *** WARNING in fm/cp_fm_elpa.F:521 :: Setting real_kernel for ELPA failed ***

     1 Broy./Diag. 0.40E+00    1.1     0.00093959      -322.3507189565 -3.22E+02

 *** WARNING in fm/cp_fm_elpa.F:521 :: Setting real_kernel for ELPA failed ***

     2 Broy./Diag. 0.40E+00    1.5     0.00012163      -322.3513748557 -6.56E-04

 *** WARNING in fm/cp_fm_elpa.F:521 :: Setting real_kernel for ELPA failed ***

     3 Broy./Diag. 0.40E+00    1.5     0.00006618      -322.3507541997  6.21E-04

 *** WARNING in fm/cp_fm_elpa.F:521 :: Setting real_kernel for ELPA failed ***

     4 Broy./Diag. 0.40E+00    1.5     0.00001807      -322.3507898118 -3.56E-05

 *** WARNING in fm/cp_fm_elpa.F:521 :: Setting real_kernel for ELPA failed ***

     5 Broy./Diag. 0.40E+00    1.5     0.00000857      -322.3507337302  5.61E-05

 *** WARNING in fm/cp_fm_elpa.F:521 :: Setting real_kernel for ELPA failed ***

     6 Broy./Diag. 0.40E+00    1.5     0.00000322      -322.3507855113 -5.18E-05

 *** WARNING in fm/cp_fm_elpa.F:521 :: Setting real_kernel for ELPA failed ***

     7 Broy./Diag. 0.40E+00    1.6     0.00000210      -322.3507641360  2.14E-05

 *** WARNING in fm/cp_fm_elpa.F:521 :: Setting real_kernel for ELPA failed ***

     8 Broy./Diag. 0.40E+00    1.6     0.00000176      -322.3507513474  1.28E-05

 *** WARNING in fm/cp_fm_elpa.F:521 :: Setting real_kernel for ELPA failed ***

     9 Broy./Diag. 0.40E+00    1.6     0.00000114      -322.3507398140  1.15E-05

 *** WARNING in fm/cp_fm_elpa.F:521 :: Setting real_kernel for ELPA failed ***

    10 Broy./Diag. 0.40E+00    1.7     0.00000123      -322.3507370528  2.76E-06

 *** WARNING in fm/cp_fm_elpa.F:521 :: Setting real_kernel for ELPA failed ***

    11 Broy./Diag. 0.40E+00    1.7     0.00000072      -322.3507347265  2.33E-06

  *** SCF run converged in    11 steps ***


  Electronic density on regular grids:       -217.9999999988        0.0000000012
  Core density on regular grids:              219.9999999998       -0.0000000002
  Total charge density on r-space grids:        2.0000000011
  Total charge density g-space grids:           2.0000000011

  Overlap energy of the core charge distribution:               0.00001410881616
  Self energy of the core charge distribution:               -766.83425392616255
  Core Hamiltonian energy:                                    231.14555460270284
  Hartree energy:                                             308.92289663293792
  Exchange-correlation energy:                                -95.46766155268907
  Dispersion energy:                                           -0.11728459206277
  Electronic entropic energy:                                  -0.00000000000000
  Fermi energy:                                                -0.26388314579637

  Total energy:                                              -322.35073472645752

 ENERGY| Total FORCE_EVAL ( QS ) energy [hartree]           -322.350731553290416

 OPT| **************************************************************************
 OPT| Step number                                                            131
 OPT| Optimization method                                                   BFGS
 OPT| Total energy [hartree]                                     -322.3507315533
 OPT| Effective energy change [hartree]                            -0.0000011713
 OPT| Predicted energy change [hartree]                            -0.0000008169
 OPT| Scaling factor                                                0.7797712553
 OPT| Step size                                                     0.0070277300
 OPT| Trust radius                                                  0.3779452266
 OPT| Decrease in energy                                                     YES
 OPT| Used time [s]                                                       18.840
 OPT|
 OPT| Maximum step size                                             0.0070277300
 OPT| Convergence limit for maximum step size                       0.0030000000
 OPT| Maximum step size is converged                                          NO
 OPT|
 OPT| RMS step size                                                 0.0015770108
 OPT| Convergence limit for RMS step size                           0.0015000000
 OPT| RMS step size is converged                                              NO
 OPT|
 OPT| Maximum gradient                                              0.0001505267
 OPT| Convergence limit for maximum gradient                        0.0004500000
 OPT| Maximum gradient is converged                                          YES
 OPT|
 OPT| RMS gradient                                                  0.0000413481
 OPT| Convergence limit for RMS gradient                            0.0003000000
 OPT| RMS gradient is converged                                              YES
 OPT| **************************************************************************
 OPT| Estimated peak process memory after this step [MiB]                    716

 --------------------------
 OPTIMIZATION STEP:    132
 --------------------------

 *** WARNING in fm/cp_fm_elpa.F:521 :: Setting real_kernel for ELPA failed ***


 Number of electrons:                                                        218
 Number of occupied orbitals:                                                109
 Number of molecular orbitals:                                               146

 Number of orbital functions:                                                723
 Number of independent orbital functions:                                    723

 *** WARNING in fm/cp_fm_elpa.F:521 :: Setting real_kernel for ELPA failed ***


 Extrapolation method: ASPC


 SCF WAVEFUNCTION OPTIMIZATION

  Step     Update method      Time    Convergence         Total energy    Change
  ------------------------------------------------------------------------------

 *** WARNING in fm/cp_fm_elpa.F:521 :: Setting real_kernel for ELPA failed ***

     1 Broy./Diag. 0.40E+00    1.1     0.00143707      -322.3507167415 -3.22E+02

 *** WARNING in fm/cp_fm_elpa.F:521 :: Setting real_kernel for ELPA failed ***

     2 Broy./Diag. 0.40E+00    1.5     0.00015183      -322.3519983307 -1.28E-03

 *** WARNING in fm/cp_fm_elpa.F:521 :: Setting real_kernel for ELPA failed ***

     3 Broy./Diag. 0.40E+00    1.5     0.00007052      -322.3509578647  1.04E-03

 *** WARNING in fm/cp_fm_elpa.F:521 :: Setting real_kernel for ELPA failed ***

     4 Broy./Diag. 0.40E+00    1.5     0.00004962      -322.3507042352  2.54E-04

 *** WARNING in fm/cp_fm_elpa.F:521 :: Setting real_kernel for ELPA failed ***

     5 Broy./Diag. 0.40E+00    1.5     0.00001444      -322.3507195077 -1.53E-05

 *** WARNING in fm/cp_fm_elpa.F:521 :: Setting real_kernel for ELPA failed ***

     6 Broy./Diag. 0.40E+00    1.6     0.00000427      -322.3507639613 -4.45E-05

 *** WARNING in fm/cp_fm_elpa.F:521 :: Setting real_kernel for ELPA failed ***

     7 Broy./Diag. 0.40E+00    1.6     0.00000096      -322.3507536050  1.04E-05

  *** SCF run converged in     7 steps ***


  Electronic density on regular grids:       -217.9999999988        0.0000000012
  Core density on regular grids:              219.9999999998       -0.0000000002
  Total charge density on r-space grids:        2.0000000011
  Total charge density g-space grids:           2.0000000011

  Overlap energy of the core charge distribution:               0.00001411000952
  Self energy of the core charge distribution:               -766.83425392616255
  Core Hamiltonian energy:                                    231.14633978991577
  Hartree energy:                                             308.92230016276881
  Exchange-correlation energy:                                -95.46786720568456
  Dispersion energy:                                           -0.11728653586209
  Electronic entropic energy:                                  -0.00000000000000
  Fermi energy:                                                -0.26389411271826

  Total energy:                                              -322.35075360501509

 ENERGY| Total FORCE_EVAL ( QS ) energy [hartree]           -322.350732797668627

 OPT| **************************************************************************
 OPT| Step number                                                            132
 OPT| Optimization method                                                   BFGS
 OPT| Total energy [hartree]                                     -322.3507327977
 OPT| Effective energy change [hartree]                            -0.0000012444
 OPT| Predicted energy change [hartree]                            -0.0000008469
 OPT| Scaling factor                                                0.7797712553
 OPT| Step size                                                     0.0089152865
 OPT| Trust radius                                                  0.3779452266
 OPT| Decrease in energy                                                     YES
 OPT| Used time [s]                                                       12.256
 OPT|
 OPT| Maximum step size                                             0.0089152865
 OPT| Convergence limit for maximum step size                       0.0030000000
 OPT| Maximum step size is converged                                          NO
 OPT|
 OPT| RMS step size                                                 0.0019842876
 OPT| Convergence limit for RMS step size                           0.0015000000
 OPT| RMS step size is converged                                              NO
 OPT|
 OPT| Maximum gradient                                              0.0001908528
 OPT| Convergence limit for maximum gradient                        0.0004500000
 OPT| Maximum gradient is converged                                          YES
 OPT|
 OPT| RMS gradient                                                  0.0000452190
 OPT| Convergence limit for RMS gradient                            0.0003000000
 OPT| RMS gradient is converged                                              YES
 OPT| **************************************************************************
 OPT| Estimated peak process memory after this step [MiB]                    716

 --------------------------
 OPTIMIZATION STEP:    133
 --------------------------

 *** WARNING in fm/cp_fm_elpa.F:521 :: Setting real_kernel for ELPA failed ***


 Number of electrons:                                                        218
 Number of occupied orbitals:                                                109
 Number of molecular orbitals:                                               146

 Number of orbital functions:                                                723
 Number of independent orbital functions:                                    723

 *** WARNING in fm/cp_fm_elpa.F:521 :: Setting real_kernel for ELPA failed ***


 Extrapolation method: ASPC


 SCF WAVEFUNCTION OPTIMIZATION

  Step     Update method      Time    Convergence         Total energy    Change
  ------------------------------------------------------------------------------

 *** WARNING in fm/cp_fm_elpa.F:521 :: Setting real_kernel for ELPA failed ***

     1 Broy./Diag. 0.40E+00    1.1     0.00161872      -322.3507006327 -3.22E+02

 *** WARNING in fm/cp_fm_elpa.F:521 :: Setting real_kernel for ELPA failed ***

     2 Broy./Diag. 0.40E+00    1.5     0.00017958      -322.3516541883 -9.54E-04

 *** WARNING in fm/cp_fm_elpa.F:521 :: Setting real_kernel for ELPA failed ***

     3 Broy./Diag. 0.40E+00    1.5     0.00011413      -322.3509201959  7.34E-04

 *** WARNING in fm/cp_fm_elpa.F:521 :: Setting real_kernel for ELPA failed ***

     4 Broy./Diag. 0.40E+00    1.5     0.00003579      -322.3506671029  2.53E-04

 *** WARNING in fm/cp_fm_elpa.F:521 :: Setting real_kernel for ELPA failed ***

     5 Broy./Diag. 0.40E+00    1.5     0.00001149      -322.3507972333 -1.30E-04

 *** WARNING in fm/cp_fm_elpa.F:521 :: Setting real_kernel for ELPA failed ***

     6 Broy./Diag. 0.40E+00    1.5     0.00000684      -322.3507886831  8.55E-06

 *** WARNING in fm/cp_fm_elpa.F:521 :: Setting real_kernel for ELPA failed ***

     7 Broy./Diag. 0.40E+00    1.6     0.00000274      -322.3507863061  2.38E-06

 *** WARNING in fm/cp_fm_elpa.F:521 :: Setting real_kernel for ELPA failed ***

     8 Broy./Diag. 0.40E+00    1.6     0.00000345      -322.3507554847  3.08E-05

 *** WARNING in fm/cp_fm_elpa.F:521 :: Setting real_kernel for ELPA failed ***

     9 Broy./Diag. 0.40E+00    1.6     0.00000218      -322.3507479220  7.56E-06

 *** WARNING in fm/cp_fm_elpa.F:521 :: Setting real_kernel for ELPA failed ***

    10 Broy./Diag. 0.40E+00    1.7     0.00000240      -322.3507414044  6.52E-06

 *** WARNING in fm/cp_fm_elpa.F:521 :: Setting real_kernel for ELPA failed ***

    11 Broy./Diag. 0.40E+00    1.7     0.00000124      -322.3507379318  3.47E-06

 *** WARNING in fm/cp_fm_elpa.F:521 :: Setting real_kernel for ELPA failed ***

    12 Broy./Diag. 0.40E+00    1.7     0.00000051      -322.3507346781  3.25E-06

  *** SCF run converged in    12 steps ***


  Electronic density on regular grids:       -217.9999999988        0.0000000012
  Core density on regular grids:              219.9999999998       -0.0000000002
  Total charge density on r-space grids:        2.0000000011
  Total charge density g-space grids:           2.0000000011

  Overlap energy of the core charge distribution:               0.00001411090692
  Self energy of the core charge distribution:               -766.83425392616255
  Core Hamiltonian energy:                                    231.14752395917282
  Hartree energy:                                             308.92142567781741
  Exchange-correlation energy:                                -95.46815347798047
  Dispersion energy:                                           -0.11729102186608
  Electronic entropic energy:                                  -0.00000000000000
  Fermi energy:                                                -0.26391875467972

  Total energy:                                              -322.35073467811202

 ENERGY| Total FORCE_EVAL ( QS ) energy [hartree]           -322.350734417201693

 OPT| **************************************************************************
 OPT| Step number                                                            133
 OPT| Optimization method                                                   BFGS
 OPT| Total energy [hartree]                                     -322.3507344172
 OPT| Effective energy change [hartree]                            -0.0000016195
 OPT| Predicted energy change [hartree]                            -0.0000011997
 OPT| Scaling factor                                                0.7797712553
 OPT| Step size                                                     0.0182716812
 OPT| Trust radius                                                  0.3779452266
 OPT| Decrease in energy                                                     YES
 OPT| Used time [s]                                                       20.508
 OPT|
 OPT| Maximum step size                                             0.0182716812
 OPT| Convergence limit for maximum step size                       0.0030000000
 OPT| Maximum step size is converged                                          NO
 OPT|
 OPT| RMS step size                                                 0.0030616467
 OPT| Convergence limit for RMS step size                           0.0015000000
 OPT| RMS step size is converged                                              NO
 OPT|
 OPT| Maximum gradient                                              0.0001805572
 OPT| Convergence limit for maximum gradient                        0.0004500000
 OPT| Maximum gradient is converged                                          YES
 OPT|
 OPT| RMS gradient                                                  0.0000558728
 OPT| Convergence limit for RMS gradient                            0.0003000000
 OPT| RMS gradient is converged                                              YES
 OPT| **************************************************************************
 OPT| Estimated peak process memory after this step [MiB]                    716

 --------------------------
 OPTIMIZATION STEP:    134
 --------------------------

 *** WARNING in fm/cp_fm_elpa.F:521 :: Setting real_kernel for ELPA failed ***


 Number of electrons:                                                        218
 Number of occupied orbitals:                                                109
 Number of molecular orbitals:                                               146

 Number of orbital functions:                                                723
 Number of independent orbital functions:                                    723

 *** WARNING in fm/cp_fm_elpa.F:521 :: Setting real_kernel for ELPA failed ***


 Extrapolation method: ASPC


 SCF WAVEFUNCTION OPTIMIZATION

  Step     Update method      Time    Convergence         Total energy    Change
  ------------------------------------------------------------------------------

 *** WARNING in fm/cp_fm_elpa.F:521 :: Setting real_kernel for ELPA failed ***

     1 Broy./Diag. 0.40E+00    1.1     0.00124353      -322.3507112921 -3.22E+02

 *** WARNING in fm/cp_fm_elpa.F:521 :: Setting real_kernel for ELPA failed ***

     2 Broy./Diag. 0.40E+00    1.5     0.00015351      -322.3523649666 -1.65E-03

 *** WARNING in fm/cp_fm_elpa.F:521 :: Setting real_kernel for ELPA failed ***

     3 Broy./Diag. 0.40E+00    1.5     0.00009789      -322.3510000527  1.36E-03

 *** WARNING in fm/cp_fm_elpa.F:521 :: Setting real_kernel for ELPA failed ***

     4 Broy./Diag. 0.40E+00    1.5     0.00004910      -322.3506697833  3.30E-04

 *** WARNING in fm/cp_fm_elpa.F:521 :: Setting real_kernel for ELPA failed ***

     5 Broy./Diag. 0.40E+00    1.5     0.00001694      -322.3507111969 -4.14E-05

 *** WARNING in fm/cp_fm_elpa.F:521 :: Setting real_kernel for ELPA failed ***

     6 Broy./Diag. 0.40E+00    1.5     0.00000502      -322.3507677984 -5.66E-05

 *** WARNING in fm/cp_fm_elpa.F:521 :: Setting real_kernel for ELPA failed ***

     7 Broy./Diag. 0.40E+00    1.6     0.00000192      -322.3507548251  1.30E-05

 *** WARNING in fm/cp_fm_elpa.F:521 :: Setting real_kernel for ELPA failed ***

     8 Broy./Diag. 0.40E+00    1.6     0.00000121      -322.3507438294  1.10E-05

 *** WARNING in fm/cp_fm_elpa.F:521 :: Setting real_kernel for ELPA failed ***

     9 Broy./Diag. 0.40E+00    1.6     0.00000086      -322.3507375926  6.24E-06

  *** SCF run converged in     9 steps ***


  Electronic density on regular grids:       -217.9999999988        0.0000000012
  Core density on regular grids:              219.9999999998       -0.0000000002
  Total charge density on r-space grids:        2.0000000011
  Total charge density g-space grids:           2.0000000011

  Overlap energy of the core charge distribution:               0.00001411051725
  Self energy of the core charge distribution:               -766.83425392616255
  Core Hamiltonian energy:                                    231.14787091297273
  Hartree energy:                                             308.92116845678800
  Exchange-correlation energy:                                -95.46824259439950
  Dispersion energy:                                           -0.11729455228746
  Electronic entropic energy:                                  -0.00000000000000
  Fermi energy:                                                -0.26392701424377

  Total energy:                                              -322.35073759257159

 ENERGY| Total FORCE_EVAL ( QS ) energy [hartree]           -322.350736142802191

 OPT| **************************************************************************
 OPT| Step number                                                            134
 OPT| Optimization method                                                   BFGS
 OPT| Total energy [hartree]                                     -322.3507361428
 OPT| Effective energy change [hartree]                            -0.0000017256
 OPT| Predicted energy change [hartree]                            -0.0000011284
 OPT| Scaling factor                                                0.7797712553
 OPT| Step size                                                     0.0111706549
 OPT| Trust radius                                                  0.3779452266
 OPT| Decrease in energy                                                     YES
 OPT| Used time [s]                                                       15.479
 OPT|
 OPT| Maximum step size                                             0.0111706549
 OPT| Convergence limit for maximum step size                       0.0030000000
 OPT| Maximum step size is converged                                          NO
 OPT|
 OPT| RMS step size                                                 0.0024268843
 OPT| Convergence limit for RMS step size                           0.0015000000
 OPT| RMS step size is converged                                              NO
 OPT|
 OPT| Maximum gradient                                              0.0001847492
 OPT| Convergence limit for maximum gradient                        0.0004500000
 OPT| Maximum gradient is converged                                          YES
 OPT|
 OPT| RMS gradient                                                  0.0000585443
 OPT| Convergence limit for RMS gradient                            0.0003000000
 OPT| RMS gradient is converged                                              YES
 OPT| **************************************************************************
 OPT| Estimated peak process memory after this step [MiB]                    716

 --------------------------
 OPTIMIZATION STEP:    135
 --------------------------

 *** WARNING in fm/cp_fm_elpa.F:521 :: Setting real_kernel for ELPA failed ***


 Number of electrons:                                                        218
 Number of occupied orbitals:                                                109
 Number of molecular orbitals:                                               146

 Number of orbital functions:                                                723
 Number of independent orbital functions:                                    723

 *** WARNING in fm/cp_fm_elpa.F:521 :: Setting real_kernel for ELPA failed ***


 Extrapolation method: ASPC


 SCF WAVEFUNCTION OPTIMIZATION

  Step     Update method      Time    Convergence         Total energy    Change
  ------------------------------------------------------------------------------

 *** WARNING in fm/cp_fm_elpa.F:521 :: Setting real_kernel for ELPA failed ***

     1 Broy./Diag. 0.40E+00    1.1     0.00211666      -322.3507027596 -3.22E+02

 *** WARNING in fm/cp_fm_elpa.F:521 :: Setting real_kernel for ELPA failed ***

     2 Broy./Diag. 0.40E+00    1.5     0.00019559      -322.3518808089 -1.18E-03

 *** WARNING in fm/cp_fm_elpa.F:521 :: Setting real_kernel for ELPA failed ***

     3 Broy./Diag. 0.40E+00    1.5     0.00010904      -322.3509634860  9.17E-04

 *** WARNING in fm/cp_fm_elpa.F:521 :: Setting real_kernel for ELPA failed ***

     4 Broy./Diag. 0.40E+00    1.5     0.00004366      -322.3506114649  3.52E-04

 *** WARNING in fm/cp_fm_elpa.F:521 :: Setting real_kernel for ELPA failed ***

     5 Broy./Diag. 0.40E+00    1.5     0.00001670      -322.3507832802 -1.72E-04

 *** WARNING in fm/cp_fm_elpa.F:521 :: Setting real_kernel for ELPA failed ***

     6 Broy./Diag. 0.40E+00    1.6     0.00000851      -322.3507803994  2.88E-06

 *** WARNING in fm/cp_fm_elpa.F:521 :: Setting real_kernel for ELPA failed ***

     7 Broy./Diag. 0.40E+00    1.6     0.00000167      -322.3507771099  3.29E-06

 *** WARNING in fm/cp_fm_elpa.F:521 :: Setting real_kernel for ELPA failed ***

     8 Broy./Diag. 0.40E+00    1.6     0.00000229      -322.3507521182  2.50E-05

 *** WARNING in fm/cp_fm_elpa.F:521 :: Setting real_kernel for ELPA failed ***

     9 Broy./Diag. 0.40E+00    1.6     0.00000130      -322.3507468788  5.24E-06

 *** WARNING in fm/cp_fm_elpa.F:521 :: Setting real_kernel for ELPA failed ***

    10 Broy./Diag. 0.40E+00    1.7     0.00000125      -322.3507425736  4.31E-06

 *** WARNING in fm/cp_fm_elpa.F:521 :: Setting real_kernel for ELPA failed ***

    11 Broy./Diag. 0.40E+00    1.7     0.00000071      -322.3507393697  3.20E-06

  *** SCF run converged in    11 steps ***


  Electronic density on regular grids:       -217.9999999988        0.0000000012
  Core density on regular grids:              219.9999999998       -0.0000000002
  Total charge density on r-space grids:        2.0000000011
  Total charge density g-space grids:           2.0000000011

  Overlap energy of the core charge distribution:               0.00001410923481
  Self energy of the core charge distribution:               -766.83425392616255
  Core Hamiltonian energy:                                    231.14780690366007
  Hartree energy:                                             308.92122498786875
  Exchange-correlation energy:                                -95.46823315160185
  Dispersion energy:                                           -0.11729829268286
  Electronic entropic energy:                                  -0.00000000000000
  Fermi energy:                                                -0.26392412221974

  Total energy:                                              -322.35073936968365

 ENERGY| Total FORCE_EVAL ( QS ) energy [hartree]           -322.350738655895213

 OPT| **************************************************************************
 OPT| Step number                                                            135
 OPT| Optimization method                                                   BFGS
 OPT| Total energy [hartree]                                     -322.3507386559
 OPT| Effective energy change [hartree]                            -0.0000025131
 OPT| Predicted energy change [hartree]                            -0.0000018289
 OPT| Scaling factor                                                0.7797712553
 OPT| Step size                                                     0.0148310673
 OPT| Trust radius                                                  0.3779452266
 OPT| Decrease in energy                                                     YES
 OPT| Used time [s]                                                       18.851
 OPT|
 OPT| Maximum step size                                             0.0148310673
 OPT| Convergence limit for maximum step size                       0.0030000000
 OPT| Maximum step size is converged                                          NO
 OPT|
 OPT| RMS step size                                                 0.0030330329
 OPT| Convergence limit for RMS step size                           0.0015000000
 OPT| RMS step size is converged                                              NO
 OPT|
 OPT| Maximum gradient                                              0.0001856629
 OPT| Convergence limit for maximum gradient                        0.0004500000
 OPT| Maximum gradient is converged                                          YES
 OPT|
 OPT| RMS gradient                                                  0.0000593292
 OPT| Convergence limit for RMS gradient                            0.0003000000
 OPT| RMS gradient is converged                                              YES
 OPT| **************************************************************************
 OPT| Estimated peak process memory after this step [MiB]                    716

 --------------------------
 OPTIMIZATION STEP:    136
 --------------------------

 *** WARNING in fm/cp_fm_elpa.F:521 :: Setting real_kernel for ELPA failed ***


 Number of electrons:                                                        218
 Number of occupied orbitals:                                                109
 Number of molecular orbitals:                                               146

 Number of orbital functions:                                                723
 Number of independent orbital functions:                                    723

 *** WARNING in fm/cp_fm_elpa.F:521 :: Setting real_kernel for ELPA failed ***


 Extrapolation method: ASPC


 SCF WAVEFUNCTION OPTIMIZATION

  Step     Update method      Time    Convergence         Total energy    Change
  ------------------------------------------------------------------------------

 *** WARNING in fm/cp_fm_elpa.F:521 :: Setting real_kernel for ELPA failed ***

     1 Broy./Diag. 0.40E+00    1.1     0.00127163      -322.3507152479 -3.22E+02

 *** WARNING in fm/cp_fm_elpa.F:521 :: Setting real_kernel for ELPA failed ***

     2 Broy./Diag. 0.40E+00    1.5     0.00015793      -322.3517908250 -1.08E-03

 *** WARNING in fm/cp_fm_elpa.F:521 :: Setting real_kernel for ELPA failed ***

     3 Broy./Diag. 0.40E+00    1.5     0.00009200      -322.3509620545  8.29E-04

 *** WARNING in fm/cp_fm_elpa.F:521 :: Setting real_kernel for ELPA failed ***

     4 Broy./Diag. 0.40E+00    1.5     0.00004860      -322.3505921890  3.70E-04

 *** WARNING in fm/cp_fm_elpa.F:521 :: Setting real_kernel for ELPA failed ***

     5 Broy./Diag. 0.40E+00    1.5     0.00001517      -322.3507513732 -1.59E-04

 *** WARNING in fm/cp_fm_elpa.F:521 :: Setting real_kernel for ELPA failed ***

     6 Broy./Diag. 0.40E+00    1.5     0.00000812      -322.3507663659 -1.50E-05

 *** WARNING in fm/cp_fm_elpa.F:521 :: Setting real_kernel for ELPA failed ***

     7 Broy./Diag. 0.40E+00    1.6     0.00000260      -322.3507549111  1.15E-05

 *** WARNING in fm/cp_fm_elpa.F:521 :: Setting real_kernel for ELPA failed ***

     8 Broy./Diag. 0.40E+00    1.6     0.00000294      -322.3507362836  1.86E-05

 *** WARNING in fm/cp_fm_elpa.F:521 :: Setting real_kernel for ELPA failed ***

     9 Broy./Diag. 0.40E+00    1.6     0.00000133      -322.3507388340 -2.55E-06

 *** WARNING in fm/cp_fm_elpa.F:521 :: Setting real_kernel for ELPA failed ***

    10 Broy./Diag. 0.40E+00    1.7     0.00000133      -322.3507406394 -1.81E-06

 *** WARNING in fm/cp_fm_elpa.F:521 :: Setting real_kernel for ELPA failed ***

    11 Broy./Diag. 0.40E+00    1.7     0.00000076      -322.3507403072  3.32E-07

  *** SCF run converged in    11 steps ***


  Electronic density on regular grids:       -217.9999999988        0.0000000012
  Core density on regular grids:              219.9999999998       -0.0000000002
  Total charge density on r-space grids:        2.0000000011
  Total charge density g-space grids:           2.0000000011

  Overlap energy of the core charge distribution:               0.00001410659430
  Self energy of the core charge distribution:               -766.83425392616255
  Core Hamiltonian energy:                                    231.14705171982425
  Hartree energy:                                             308.92177931128651
  Exchange-correlation energy:                                -95.46802687525508
  Dispersion energy:                                           -0.11730464349732
  Electronic entropic energy:                                  -0.00000000000000
  Fermi energy:                                                -0.26392054206560

  Total energy:                                              -322.35074030720983

 ENERGY| Total FORCE_EVAL ( QS ) energy [hartree]           -322.350740566122738

 OPT| **************************************************************************
 OPT| Step number                                                            136
 OPT| Optimization method                                                   BFGS
 OPT| Total energy [hartree]                                     -322.3507405661
 OPT| Effective energy change [hartree]                            -0.0000019102
 OPT| Predicted energy change [hartree]                            -0.0000013247
 OPT| Scaling factor                                                0.7797712553
 OPT| Step size                                                     0.0109465783
 OPT| Trust radius                                                  0.3779452266
 OPT| Decrease in energy                                                     YES
 OPT| Used time [s]                                                       18.850
 OPT|
 OPT| Maximum step size                                             0.0109465783
 OPT| Convergence limit for maximum step size                       0.0030000000
 OPT| Maximum step size is converged                                          NO
 OPT|
 OPT| RMS step size                                                 0.0023745217
 OPT| Convergence limit for RMS step size                           0.0015000000
 OPT| RMS step size is converged                                              NO
 OPT|
 OPT| Maximum gradient                                              0.0002171662
 OPT| Convergence limit for maximum gradient                        0.0004500000
 OPT| Maximum gradient is converged                                          YES
 OPT|
 OPT| RMS gradient                                                  0.0000557141
 OPT| Convergence limit for RMS gradient                            0.0003000000
 OPT| RMS gradient is converged                                              YES
 OPT| **************************************************************************
 OPT| Estimated peak process memory after this step [MiB]                    716

 --------------------------
 OPTIMIZATION STEP:    137
 --------------------------

 *** WARNING in fm/cp_fm_elpa.F:521 :: Setting real_kernel for ELPA failed ***


 Number of electrons:                                                        218
 Number of occupied orbitals:                                                109
 Number of molecular orbitals:                                               146

 Number of orbital functions:                                                723
 Number of independent orbital functions:                                    723

 *** WARNING in fm/cp_fm_elpa.F:521 :: Setting real_kernel for ELPA failed ***


 Extrapolation method: ASPC


 SCF WAVEFUNCTION OPTIMIZATION

  Step     Update method      Time    Convergence         Total energy    Change
  ------------------------------------------------------------------------------

 *** WARNING in fm/cp_fm_elpa.F:521 :: Setting real_kernel for ELPA failed ***

     1 Broy./Diag. 0.40E+00    1.1     0.00120603      -322.3507239383 -3.22E+02

 *** WARNING in fm/cp_fm_elpa.F:521 :: Setting real_kernel for ELPA failed ***

     2 Broy./Diag. 0.40E+00    1.5     0.00025940      -322.3502302859  4.94E-04

 *** WARNING in fm/cp_fm_elpa.F:521 :: Setting real_kernel for ELPA failed ***

     3 Broy./Diag. 0.40E+00    1.5     0.00007897      -322.3506151107 -3.85E-04

 *** WARNING in fm/cp_fm_elpa.F:521 :: Setting real_kernel for ELPA failed ***

     4 Broy./Diag. 0.40E+00    1.5     0.00004629      -322.3505639185  5.12E-05

 *** WARNING in fm/cp_fm_elpa.F:521 :: Setting real_kernel for ELPA failed ***

     5 Broy./Diag. 0.40E+00    1.5     0.00001310      -322.3507021387 -1.38E-04

 *** WARNING in fm/cp_fm_elpa.F:521 :: Setting real_kernel for ELPA failed ***

     6 Broy./Diag. 0.40E+00    1.6     0.00000629      -322.3506763427  2.58E-05

 *** WARNING in fm/cp_fm_elpa.F:521 :: Setting real_kernel for ELPA failed ***

     7 Broy./Diag. 0.40E+00    1.6     0.00000538      -322.3507017486 -2.54E-05

 *** WARNING in fm/cp_fm_elpa.F:521 :: Setting real_kernel for ELPA failed ***

     8 Broy./Diag. 0.40E+00    1.6     0.00000382      -322.3507159840 -1.42E-05

 *** WARNING in fm/cp_fm_elpa.F:521 :: Setting real_kernel for ELPA failed ***

     9 Broy./Diag. 0.40E+00    1.6     0.00000197      -322.3507342031 -1.82E-05

 *** WARNING in fm/cp_fm_elpa.F:521 :: Setting real_kernel for ELPA failed ***

    10 Broy./Diag. 0.40E+00    1.7     0.00000181      -322.3507370143 -2.81E-06

 *** WARNING in fm/cp_fm_elpa.F:521 :: Setting real_kernel for ELPA failed ***

    11 Broy./Diag. 0.40E+00    1.7     0.00000141      -322.3507401266 -3.11E-06

 *** WARNING in fm/cp_fm_elpa.F:521 :: Setting real_kernel for ELPA failed ***

    12 Broy./Diag. 0.40E+00    1.7     0.00000090      -322.3507419313 -1.80E-06

  *** SCF run converged in    12 steps ***


  Electronic density on regular grids:       -217.9999999988        0.0000000012
  Core density on regular grids:              219.9999999998       -0.0000000002
  Total charge density on r-space grids:        2.0000000011
  Total charge density g-space grids:           2.0000000011

  Overlap energy of the core charge distribution:               0.00001410519198
  Self energy of the core charge distribution:               -766.83425392616255
  Core Hamiltonian energy:                                    231.14609783534661
  Hartree energy:                                             308.92249452327542
  Exchange-correlation energy:                                -95.46778322425493
  Dispersion energy:                                           -0.11731124464813
  Electronic entropic energy:                                  -0.00000000000000
  Fermi energy:                                                -0.26392363196079

  Total energy:                                              -322.35074193125160

 ENERGY| Total FORCE_EVAL ( QS ) energy [hartree]           -322.350742431793549

 OPT| **************************************************************************
 OPT| Step number                                                            137
 OPT| Optimization method                                                   BFGS
 OPT| Total energy [hartree]                                     -322.3507424318
 OPT| Effective energy change [hartree]                            -0.0000018657
 OPT| Predicted energy change [hartree]                            -0.0000014556
 OPT| Scaling factor                                                0.7797712553
 OPT| Step size                                                     0.0192691565
 OPT| Trust radius                                                  0.3779452266
 OPT| Decrease in energy                                                     YES
 OPT| Used time [s]                                                       20.537
 OPT|
 OPT| Maximum step size                                             0.0192691565
 OPT| Convergence limit for maximum step size                       0.0030000000
 OPT| Maximum step size is converged                                          NO
 OPT|
 OPT| RMS step size                                                 0.0023174638
 OPT| Convergence limit for RMS step size                           0.0015000000
 OPT| RMS step size is converged                                              NO
 OPT|
 OPT| Maximum gradient                                              0.0001968105
 OPT| Convergence limit for maximum gradient                        0.0004500000
 OPT| Maximum gradient is converged                                          YES
 OPT|
 OPT| RMS gradient                                                  0.0000521835
 OPT| Convergence limit for RMS gradient                            0.0003000000
 OPT| RMS gradient is converged                                              YES
 OPT| **************************************************************************
 OPT| Estimated peak process memory after this step [MiB]                    716

 --------------------------
 OPTIMIZATION STEP:    138
 --------------------------

 *** WARNING in fm/cp_fm_elpa.F:521 :: Setting real_kernel for ELPA failed ***


 Number of electrons:                                                        218
 Number of occupied orbitals:                                                109
 Number of molecular orbitals:                                               146

 Number of orbital functions:                                                723
 Number of independent orbital functions:                                    723

 *** WARNING in fm/cp_fm_elpa.F:521 :: Setting real_kernel for ELPA failed ***


 Extrapolation method: ASPC


 SCF WAVEFUNCTION OPTIMIZATION

  Step     Update method      Time    Convergence         Total energy    Change
  ------------------------------------------------------------------------------

 *** WARNING in fm/cp_fm_elpa.F:521 :: Setting real_kernel for ELPA failed ***

     1 Broy./Diag. 0.40E+00    1.1     0.00068131      -322.3507376012 -3.22E+02

 *** WARNING in fm/cp_fm_elpa.F:521 :: Setting real_kernel for ELPA failed ***

     2 Broy./Diag. 0.40E+00    1.5     0.00010934      -322.3502054581  5.32E-04

 *** WARNING in fm/cp_fm_elpa.F:521 :: Setting real_kernel for ELPA failed ***

     3 Broy./Diag. 0.40E+00    1.5     0.00005127      -322.3506576710 -4.52E-04

 *** WARNING in fm/cp_fm_elpa.F:521 :: Setting real_kernel for ELPA failed ***

     4 Broy./Diag. 0.40E+00    1.5     0.00004028      -322.3507232030 -6.55E-05

 *** WARNING in fm/cp_fm_elpa.F:521 :: Setting real_kernel for ELPA failed ***

     5 Broy./Diag. 0.40E+00    1.5     0.00001128      -322.3507916521 -6.84E-05

 *** WARNING in fm/cp_fm_elpa.F:521 :: Setting real_kernel for ELPA failed ***

     6 Broy./Diag. 0.40E+00    1.5     0.00000449      -322.3507551998  3.65E-05

 *** WARNING in fm/cp_fm_elpa.F:521 :: Setting real_kernel for ELPA failed ***

     7 Broy./Diag. 0.40E+00    1.6     0.00000141      -322.3507484245  6.78E-06

 *** WARNING in fm/cp_fm_elpa.F:521 :: Setting real_kernel for ELPA failed ***

     8 Broy./Diag. 0.40E+00    1.6     0.00000175      -322.3507404727  7.95E-06

 *** WARNING in fm/cp_fm_elpa.F:521 :: Setting real_kernel for ELPA failed ***

     9 Broy./Diag. 0.40E+00    1.6     0.00000079      -322.3507427307 -2.26E-06

  *** SCF run converged in     9 steps ***


  Electronic density on regular grids:       -217.9999999988        0.0000000012
  Core density on regular grids:              219.9999999998       -0.0000000002
  Total charge density on r-space grids:        2.0000000011
  Total charge density g-space grids:           2.0000000011

  Overlap energy of the core charge distribution:               0.00001410645768
  Self energy of the core charge distribution:               -766.83425392616255
  Core Hamiltonian energy:                                    231.14583219263426
  Hartree energy:                                             308.92269947711873
  Exchange-correlation energy:                                -95.46772168771193
  Dispersion energy:                                           -0.11731289302400
  Electronic entropic energy:                                  -0.00000000000000
  Fermi energy:                                                -0.26390091534413

  Total energy:                                              -322.35074273068773

 ENERGY| Total FORCE_EVAL ( QS ) energy [hartree]           -322.350743829348289

 OPT| **************************************************************************
 OPT| Step number                                                            138
 OPT| Optimization method                                                   BFGS
 OPT| Total energy [hartree]                                     -322.3507438293
 OPT| Effective energy change [hartree]                            -0.0000013976
 OPT| Predicted energy change [hartree]                            -0.0000009199
 OPT| Scaling factor                                                0.7797712553
 OPT| Step size                                                     0.0042878828
 OPT| Trust radius                                                  0.3779452266
 OPT| Decrease in energy                                                     YES
 OPT| Used time [s]                                                       15.515
 OPT|
 OPT| Maximum step size                                             0.0042878828
 OPT| Convergence limit for maximum step size                       0.0030000000
 OPT| Maximum step size is converged                                          NO
 OPT|
 OPT| RMS step size                                                 0.0009531514
 OPT| Convergence limit for RMS step size                           0.0015000000
 OPT| RMS step size is converged                                             YES
 OPT|
 OPT| Maximum gradient                                              0.0001792617
 OPT| Convergence limit for maximum gradient                        0.0004500000
 OPT| Maximum gradient is converged                                          YES
 OPT|
 OPT| RMS gradient                                                  0.0000484723
 OPT| Convergence limit for RMS gradient                            0.0003000000
 OPT| RMS gradient is converged                                              YES
 OPT| **************************************************************************
 OPT| Estimated peak process memory after this step [MiB]                    716

 --------------------------
 OPTIMIZATION STEP:    139
 --------------------------

 *** WARNING in fm/cp_fm_elpa.F:521 :: Setting real_kernel for ELPA failed ***


 Number of electrons:                                                        218
 Number of occupied orbitals:                                                109
 Number of molecular orbitals:                                               146

 Number of orbital functions:                                                723
 Number of independent orbital functions:                                    723

 *** WARNING in fm/cp_fm_elpa.F:521 :: Setting real_kernel for ELPA failed ***


 Extrapolation method: ASPC


 SCF WAVEFUNCTION OPTIMIZATION

  Step     Update method      Time    Convergence         Total energy    Change
  ------------------------------------------------------------------------------

 *** WARNING in fm/cp_fm_elpa.F:521 :: Setting real_kernel for ELPA failed ***

     1 Broy./Diag. 0.40E+00    1.1     0.00177551      -322.3507274598 -3.22E+02

 *** WARNING in fm/cp_fm_elpa.F:521 :: Setting real_kernel for ELPA failed ***

     2 Broy./Diag. 0.40E+00    1.5     0.00009276      -322.3511024524 -3.75E-04

 *** WARNING in fm/cp_fm_elpa.F:521 :: Setting real_kernel for ELPA failed ***

     3 Broy./Diag. 0.40E+00    1.5     0.00006276      -322.3507732473  3.29E-04

 *** WARNING in fm/cp_fm_elpa.F:521 :: Setting real_kernel for ELPA failed ***

     4 Broy./Diag. 0.40E+00    1.5     0.00003420      -322.3507196257  5.36E-05

 *** WARNING in fm/cp_fm_elpa.F:521 :: Setting real_kernel for ELPA failed ***

     5 Broy./Diag. 0.40E+00    1.5     0.00001378      -322.3507296982 -1.01E-05

 *** WARNING in fm/cp_fm_elpa.F:521 :: Setting real_kernel for ELPA failed ***

     6 Broy./Diag. 0.40E+00    1.6     0.00000352      -322.3507361309 -6.43E-06

 *** WARNING in fm/cp_fm_elpa.F:521 :: Setting real_kernel for ELPA failed ***

     7 Broy./Diag. 0.40E+00    1.6     0.00000227      -322.3507394984 -3.37E-06

 *** WARNING in fm/cp_fm_elpa.F:521 :: Setting real_kernel for ELPA failed ***

     8 Broy./Diag. 0.40E+00    1.6     0.00000215      -322.3507395053 -6.95E-09

 *** WARNING in fm/cp_fm_elpa.F:521 :: Setting real_kernel for ELPA failed ***

     9 Broy./Diag. 0.40E+00    1.6     0.00000107      -322.3507436111 -4.11E-06

 *** WARNING in fm/cp_fm_elpa.F:521 :: Setting real_kernel for ELPA failed ***

    10 Broy./Diag. 0.40E+00    1.7     0.00000096      -322.3507442305 -6.19E-07

  *** SCF run converged in    10 steps ***


  Electronic density on regular grids:       -217.9999999988        0.0000000012
  Core density on regular grids:              219.9999999998       -0.0000000002
  Total charge density on r-space grids:        2.0000000011
  Total charge density g-space grids:           2.0000000011

  Overlap energy of the core charge distribution:               0.00001410755595
  Self energy of the core charge distribution:               -766.83425392616255
  Core Hamiltonian energy:                                    231.14556378137070
  Hartree energy:                                             308.92289178935988
  Exchange-correlation energy:                                -95.46764566660542
  Dispersion energy:                                           -0.11731431605729
  Electronic entropic energy:                                  -0.00000000000000
  Fermi energy:                                                -0.26388782475410

  Total energy:                                              -322.35074423053874

 ENERGY| Total FORCE_EVAL ( QS ) energy [hartree]           -322.350745460035171

 OPT| **************************************************************************
 OPT| Step number                                                            139
 OPT| Optimization method                                                   BFGS
 OPT| Total energy [hartree]                                     -322.3507454600
 OPT| Effective energy change [hartree]                            -0.0000016307
 OPT| Predicted energy change [hartree]                            -0.0000012206
 OPT| Scaling factor                                                0.7797712553
 OPT| Step size                                                     0.0079016815
 OPT| Trust radius                                                  0.3779452266
 OPT| Decrease in energy                                                     YES
 OPT| Used time [s]                                                       17.177
 OPT|
 OPT| Maximum step size                                             0.0079016815
 OPT| Convergence limit for maximum step size                       0.0030000000
 OPT| Maximum step size is converged                                          NO
 OPT|
 OPT| RMS step size                                                 0.0018335031
 OPT| Convergence limit for RMS step size                           0.0015000000
 OPT| RMS step size is converged                                              NO
 OPT|
 OPT| Maximum gradient                                              0.0002105501
 OPT| Convergence limit for maximum gradient                        0.0004500000
 OPT| Maximum gradient is converged                                          YES
 OPT|
 OPT| RMS gradient                                                  0.0000487441
 OPT| Convergence limit for RMS gradient                            0.0003000000
 OPT| RMS gradient is converged                                              YES
 OPT| **************************************************************************
 OPT| Estimated peak process memory after this step [MiB]                    716

 --------------------------
 OPTIMIZATION STEP:    140
 --------------------------

 *** WARNING in fm/cp_fm_elpa.F:521 :: Setting real_kernel for ELPA failed ***


 Number of electrons:                                                        218
 Number of occupied orbitals:                                                109
 Number of molecular orbitals:                                               146

 Number of orbital functions:                                                723
 Number of independent orbital functions:                                    723

 *** WARNING in fm/cp_fm_elpa.F:521 :: Setting real_kernel for ELPA failed ***


 Extrapolation method: ASPC


 SCF WAVEFUNCTION OPTIMIZATION

  Step     Update method      Time    Convergence         Total energy    Change
  ------------------------------------------------------------------------------

 *** WARNING in fm/cp_fm_elpa.F:521 :: Setting real_kernel for ELPA failed ***

     1 Broy./Diag. 0.40E+00    1.1     0.00148244      -322.3507327879 -3.22E+02

 *** WARNING in fm/cp_fm_elpa.F:521 :: Setting real_kernel for ELPA failed ***

     2 Broy./Diag. 0.40E+00    1.5     0.00018684      -322.3510993579 -3.67E-04

 *** WARNING in fm/cp_fm_elpa.F:521 :: Setting real_kernel for ELPA failed ***

     3 Broy./Diag. 0.40E+00    1.5     0.00007621      -322.3507000003  3.99E-04

 *** WARNING in fm/cp_fm_elpa.F:521 :: Setting real_kernel for ELPA failed ***

     4 Broy./Diag. 0.40E+00    1.5     0.00005409      -322.3507589097 -5.89E-05

 *** WARNING in fm/cp_fm_elpa.F:521 :: Setting real_kernel for ELPA failed ***

     5 Broy./Diag. 0.40E+00    1.5     0.00001304      -322.3507101119  4.88E-05

 *** WARNING in fm/cp_fm_elpa.F:521 :: Setting real_kernel for ELPA failed ***

     6 Broy./Diag. 0.40E+00    1.6     0.00000344      -322.3507408410 -3.07E-05

 *** WARNING in fm/cp_fm_elpa.F:521 :: Setting real_kernel for ELPA failed ***

     7 Broy./Diag. 0.40E+00    1.6     0.00000087      -322.3507425086 -1.67E-06

  *** SCF run converged in     7 steps ***


  Electronic density on regular grids:       -217.9999999988        0.0000000012
  Core density on regular grids:              219.9999999998       -0.0000000002
  Total charge density on r-space grids:        2.0000000011
  Total charge density g-space grids:           2.0000000011

  Overlap energy of the core charge distribution:               0.00001411134964
  Self energy of the core charge distribution:               -766.83425392616255
  Core Hamiltonian energy:                                    231.14624379174285
  Hartree energy:                                             308.92242429110377
  Exchange-correlation energy:                                -95.46785557781850
  Dispersion energy:                                           -0.11731519883520
  Electronic entropic energy:                                  -0.00000000000000
  Fermi energy:                                                -0.26389885714818

  Total energy:                                              -322.35074250862010

 ENERGY| Total FORCE_EVAL ( QS ) energy [hartree]           -322.350746572634478

 OPT| **************************************************************************
 OPT| Step number                                                            140
 OPT| Optimization method                                                   BFGS
 OPT| Total energy [hartree]                                     -322.3507465726
 OPT| Effective energy change [hartree]                            -0.0000011126
 OPT| Predicted energy change [hartree]                            -0.0000007731
 OPT| Scaling factor                                                0.7797712553
 OPT| Step size                                                     0.0048915782
 OPT| Trust radius                                                  0.3779452266
 OPT| Decrease in energy                                                     YES
 OPT| Used time [s]                                                       12.271
 OPT|
 OPT| Maximum step size                                             0.0048915782
 OPT| Convergence limit for maximum step size                       0.0030000000
 OPT| Maximum step size is converged                                          NO
 OPT|
 OPT| RMS step size                                                 0.0009400547
 OPT| Convergence limit for RMS step size                           0.0015000000
 OPT| RMS step size is converged                                             YES
 OPT|
 OPT| Maximum gradient                                              0.0001973633
 OPT| Convergence limit for maximum gradient                        0.0004500000
 OPT| Maximum gradient is converged                                          YES
 OPT|
 OPT| RMS gradient                                                  0.0000484970
 OPT| Convergence limit for RMS gradient                            0.0003000000
 OPT| RMS gradient is converged                                              YES
 OPT| **************************************************************************
 OPT| Estimated peak process memory after this step [MiB]                    716

 --------------------------
 OPTIMIZATION STEP:    141
 --------------------------

 *** WARNING in fm/cp_fm_elpa.F:521 :: Setting real_kernel for ELPA failed ***


 Number of electrons:                                                        218
 Number of occupied orbitals:                                                109
 Number of molecular orbitals:                                               146

 Number of orbital functions:                                                723
 Number of independent orbital functions:                                    723

 *** WARNING in fm/cp_fm_elpa.F:521 :: Setting real_kernel for ELPA failed ***


 Extrapolation method: ASPC


 SCF WAVEFUNCTION OPTIMIZATION

  Step     Update method      Time    Convergence         Total energy    Change
  ------------------------------------------------------------------------------

 *** WARNING in fm/cp_fm_elpa.F:521 :: Setting real_kernel for ELPA failed ***

     1 Broy./Diag. 0.40E+00    1.1     0.00299721      -322.3507030019 -3.22E+02

 *** WARNING in fm/cp_fm_elpa.F:521 :: Setting real_kernel for ELPA failed ***

     2 Broy./Diag. 0.40E+00    1.5     0.00016790      -322.3516001097 -8.97E-04

 *** WARNING in fm/cp_fm_elpa.F:521 :: Setting real_kernel for ELPA failed ***

     3 Broy./Diag. 0.40E+00    1.5     0.00010446      -322.3509262447  6.74E-04

 *** WARNING in fm/cp_fm_elpa.F:521 :: Setting real_kernel for ELPA failed ***

     4 Broy./Diag. 0.40E+00    1.5     0.00007240      -322.3505924307  3.34E-04

 *** WARNING in fm/cp_fm_elpa.F:521 :: Setting real_kernel for ELPA failed ***

     5 Broy./Diag. 0.40E+00    1.5     0.00001923      -322.3507452665 -1.53E-04

 *** WARNING in fm/cp_fm_elpa.F:521 :: Setting real_kernel for ELPA failed ***

     6 Broy./Diag. 0.40E+00    1.6     0.00000443      -322.3507421234  3.14E-06

 *** WARNING in fm/cp_fm_elpa.F:521 :: Setting real_kernel for ELPA failed ***

     7 Broy./Diag. 0.40E+00    1.6     0.00000099      -322.3507511104 -8.99E-06

  *** SCF run converged in     7 steps ***


  Electronic density on regular grids:       -217.9999999988        0.0000000012
  Core density on regular grids:              219.9999999998       -0.0000000002
  Total charge density on r-space grids:        2.0000000011
  Total charge density g-space grids:           2.0000000011

  Overlap energy of the core charge distribution:               0.00001410871432
  Self energy of the core charge distribution:               -766.83425392616255
  Core Hamiltonian energy:                                    231.14562241941820
  Hartree energy:                                             308.92286032755862
  Exchange-correlation energy:                                -95.46767793244294
  Dispersion energy:                                           -0.11731610745973
  Electronic entropic energy:                                  -0.00000000000000
  Fermi energy:                                                -0.26392001599480

  Total energy:                                              -322.35075111037395

 ENERGY| Total FORCE_EVAL ( QS ) energy [hartree]           -322.350747893369999

 OPT| **************************************************************************
 OPT| Step number                                                            141
 OPT| Optimization method                                                   BFGS
 OPT| Total energy [hartree]                                     -322.3507478934
 OPT| Effective energy change [hartree]                            -0.0000013207
 OPT| Predicted energy change [hartree]                            -0.0000009950
 OPT| Scaling factor                                                0.7797712553
 OPT| Step size                                                     0.0108632280
 OPT| Trust radius                                                  0.3779452266
 OPT| Decrease in energy                                                     YES
 OPT| Used time [s]                                                       12.274
 OPT|
 OPT| Maximum step size                                             0.0108632280
 OPT| Convergence limit for maximum step size                       0.0030000000
 OPT| Maximum step size is converged                                          NO
 OPT|
 OPT| RMS step size                                                 0.0024452099
 OPT| Convergence limit for RMS step size                           0.0015000000
 OPT| RMS step size is converged                                              NO
 OPT|
 OPT| Maximum gradient                                              0.0001779399
 OPT| Convergence limit for maximum gradient                        0.0004500000
 OPT| Maximum gradient is converged                                          YES
 OPT|
 OPT| RMS gradient                                                  0.0000501709
 OPT| Convergence limit for RMS gradient                            0.0003000000
 OPT| RMS gradient is converged                                              YES
 OPT| **************************************************************************
 OPT| Estimated peak process memory after this step [MiB]                    716

 --------------------------
 OPTIMIZATION STEP:    142
 --------------------------

 *** WARNING in fm/cp_fm_elpa.F:521 :: Setting real_kernel for ELPA failed ***


 Number of electrons:                                                        218
 Number of occupied orbitals:                                                109
 Number of molecular orbitals:                                               146

 Number of orbital functions:                                                723
 Number of independent orbital functions:                                    723

 *** WARNING in fm/cp_fm_elpa.F:521 :: Setting real_kernel for ELPA failed ***


 Extrapolation method: ASPC


 SCF WAVEFUNCTION OPTIMIZATION

  Step     Update method      Time    Convergence         Total energy    Change
  ------------------------------------------------------------------------------

 *** WARNING in fm/cp_fm_elpa.F:521 :: Setting real_kernel for ELPA failed ***

     1 Broy./Diag. 0.40E+00    1.1     0.00262655      -322.3507134858 -3.22E+02

 *** WARNING in fm/cp_fm_elpa.F:521 :: Setting real_kernel for ELPA failed ***

     2 Broy./Diag. 0.40E+00    1.5     0.00019875      -322.3508657865 -1.52E-04

 *** WARNING in fm/cp_fm_elpa.F:521 :: Setting real_kernel for ELPA failed ***

     3 Broy./Diag. 0.40E+00    1.5     0.00008029      -322.3506170804  2.49E-04

 *** WARNING in fm/cp_fm_elpa.F:521 :: Setting real_kernel for ELPA failed ***

     4 Broy./Diag. 0.40E+00    1.5     0.00005710      -322.3507172003 -1.00E-04

 *** WARNING in fm/cp_fm_elpa.F:521 :: Setting real_kernel for ELPA failed ***

     5 Broy./Diag. 0.40E+00    1.5     0.00001606      -322.3506736910  4.35E-05

 *** WARNING in fm/cp_fm_elpa.F:521 :: Setting real_kernel for ELPA failed ***

     6 Broy./Diag. 0.40E+00    1.6     0.00000560      -322.3507141418 -4.05E-05

 *** WARNING in fm/cp_fm_elpa.F:521 :: Setting real_kernel for ELPA failed ***

     7 Broy./Diag. 0.40E+00    1.7     0.00000136      -322.3507240178 -9.88E-06

 *** WARNING in fm/cp_fm_elpa.F:521 :: Setting real_kernel for ELPA failed ***

     8 Broy./Diag. 0.40E+00    1.7     0.00000156      -322.3507367139 -1.27E-05

 *** WARNING in fm/cp_fm_elpa.F:521 :: Setting real_kernel for ELPA failed ***

     9 Broy./Diag. 0.40E+00    1.7     0.00000101      -322.3507418269 -5.11E-06

 *** WARNING in fm/cp_fm_elpa.F:521 :: Setting real_kernel for ELPA failed ***

    10 Broy./Diag. 0.40E+00    1.8     0.00000080      -322.3507470508 -5.22E-06

  *** SCF run converged in    10 steps ***


  Electronic density on regular grids:       -217.9999999988        0.0000000012
  Core density on regular grids:              219.9999999998       -0.0000000002
  Total charge density on r-space grids:        2.0000000011
  Total charge density g-space grids:           2.0000000011

  Overlap energy of the core charge distribution:               0.00001411057865
  Self energy of the core charge distribution:               -766.83425392616255
  Core Hamiltonian energy:                                    231.14613150495714
  Hartree energy:                                             308.92251840773230
  Exchange-correlation energy:                                -95.46784014579545
  Dispersion energy:                                           -0.11731700212434
  Electronic entropic energy:                                  -0.00000000000000
  Fermi energy:                                                -0.26394764162180

  Total energy:                                              -322.35074705081428

 ENERGY| Total FORCE_EVAL ( QS ) energy [hartree]           -322.350749057844496

 OPT| **************************************************************************
 OPT| Step number                                                            142
 OPT| Optimization method                                                   BFGS
 OPT| Total energy [hartree]                                     -322.3507490578
 OPT| Effective energy change [hartree]                            -0.0000011645
 OPT| Predicted energy change [hartree]                            -0.0000008607
 OPT| Scaling factor                                                0.7797712553
 OPT| Step size                                                     0.0067965708
 OPT| Trust radius                                                  0.3779452266
 OPT| Decrease in energy                                                     YES
 OPT| Used time [s]                                                       17.750
 OPT|
 OPT| Maximum step size                                             0.0067965708
 OPT| Convergence limit for maximum step size                       0.0030000000
 OPT| Maximum step size is converged                                          NO
 OPT|
 OPT| RMS step size                                                 0.0011959587
 OPT| Convergence limit for RMS step size                           0.0015000000
 OPT| RMS step size is converged                                             YES
 OPT|
 OPT| Maximum gradient                                              0.0002518073
 OPT| Convergence limit for maximum gradient                        0.0004500000
 OPT| Maximum gradient is converged                                          YES
 OPT|
 OPT| RMS gradient                                                  0.0000462650
 OPT| Convergence limit for RMS gradient                            0.0003000000
 OPT| RMS gradient is converged                                              YES
 OPT| **************************************************************************
 OPT| Estimated peak process memory after this step [MiB]                    716

 --------------------------
 OPTIMIZATION STEP:    143
 --------------------------

 *** WARNING in fm/cp_fm_elpa.F:521 :: Setting real_kernel for ELPA failed ***


 Number of electrons:                                                        218
 Number of occupied orbitals:                                                109
 Number of molecular orbitals:                                               146

 Number of orbital functions:                                                723
 Number of independent orbital functions:                                    723

 *** WARNING in fm/cp_fm_elpa.F:521 :: Setting real_kernel for ELPA failed ***


 Extrapolation method: ASPC


 SCF WAVEFUNCTION OPTIMIZATION

  Step     Update method      Time    Convergence         Total energy    Change
  ------------------------------------------------------------------------------

 *** WARNING in fm/cp_fm_elpa.F:521 :: Setting real_kernel for ELPA failed ***

     1 Broy./Diag. 0.40E+00    1.1     0.00260683      -322.3507174220 -3.22E+02

 *** WARNING in fm/cp_fm_elpa.F:521 :: Setting real_kernel for ELPA failed ***

     2 Broy./Diag. 0.40E+00    1.5     0.00018596      -322.3513964380 -6.79E-04

 *** WARNING in fm/cp_fm_elpa.F:521 :: Setting real_kernel for ELPA failed ***

     3 Broy./Diag. 0.40E+00    1.6     0.00009727      -322.3509773996  4.19E-04

 *** WARNING in fm/cp_fm_elpa.F:521 :: Setting real_kernel for ELPA failed ***

     4 Broy./Diag. 0.40E+00    1.6     0.00006474      -322.3505753534  4.02E-04

 *** WARNING in fm/cp_fm_elpa.F:521 :: Setting real_kernel for ELPA failed ***

     5 Broy./Diag. 0.40E+00    1.6     0.00001046      -322.3507484138 -1.73E-04

 *** WARNING in fm/cp_fm_elpa.F:521 :: Setting real_kernel for ELPA failed ***

     6 Broy./Diag. 0.40E+00    1.6     0.00000225      -322.3507509166 -2.50E-06

 *** WARNING in fm/cp_fm_elpa.F:521 :: Setting real_kernel for ELPA failed ***

     7 Broy./Diag. 0.40E+00    1.7     0.00000084      -322.3507555431 -4.63E-06

  *** SCF run converged in     7 steps ***


  Electronic density on regular grids:       -217.9999999988        0.0000000012
  Core density on regular grids:              219.9999999998       -0.0000000002
  Total charge density on r-space grids:        2.0000000011
  Total charge density g-space grids:           2.0000000011

  Overlap energy of the core charge distribution:               0.00001410670177
  Self energy of the core charge distribution:               -766.83425392616255
  Core Hamiltonian energy:                                    231.14532132514452
  Hartree energy:                                             308.92309553371945
  Exchange-correlation energy:                                -95.46761461164004
  Dispersion energy:                                           -0.11731797088821
  Electronic entropic energy:                                  -0.00000000000000
  Fermi energy:                                                -0.26395943873317

  Total energy:                                              -322.35075554312505

 ENERGY| Total FORCE_EVAL ( QS ) energy [hartree]           -322.350750063325791

 OPT| **************************************************************************
 OPT| Step number                                                            143
 OPT| Optimization method                                                   BFGS
 OPT| Total energy [hartree]                                     -322.3507500633
 OPT| Effective energy change [hartree]                            -0.0000010055
 OPT| Predicted energy change [hartree]                            -0.0000007061
 OPT| Scaling factor                                                0.7797712553
 OPT| Step size                                                     0.0067390065
 OPT| Trust radius                                                  0.3779452266
 OPT| Decrease in energy                                                     YES
 OPT| Used time [s]                                                       12.989
 OPT|
 OPT| Maximum step size                                             0.0067390065
 OPT| Convergence limit for maximum step size                       0.0030000000
 OPT| Maximum step size is converged                                          NO
 OPT|
 OPT| RMS step size                                                 0.0015019701
 OPT| Convergence limit for RMS step size                           0.0015000000
 OPT| RMS step size is converged                                              NO
 OPT|
 OPT| Maximum gradient                                              0.0002385022
 OPT| Convergence limit for maximum gradient                        0.0004500000
 OPT| Maximum gradient is converged                                          YES
 OPT|
 OPT| RMS gradient                                                  0.0000398357
 OPT| Convergence limit for RMS gradient                            0.0003000000
 OPT| RMS gradient is converged                                              YES
 OPT| **************************************************************************
 OPT| Estimated peak process memory after this step [MiB]                    716

 --------------------------
 OPTIMIZATION STEP:    144
 --------------------------

 *** WARNING in fm/cp_fm_elpa.F:521 :: Setting real_kernel for ELPA failed ***


 Number of electrons:                                                        218
 Number of occupied orbitals:                                                109
 Number of molecular orbitals:                                               146

 Number of orbital functions:                                                723
 Number of independent orbital functions:                                    723

 *** WARNING in fm/cp_fm_elpa.F:521 :: Setting real_kernel for ELPA failed ***


 Extrapolation method: ASPC


 SCF WAVEFUNCTION OPTIMIZATION

  Step     Update method      Time    Convergence         Total energy    Change
  ------------------------------------------------------------------------------

 *** WARNING in fm/cp_fm_elpa.F:521 :: Setting real_kernel for ELPA failed ***

     1 Broy./Diag. 0.40E+00    1.1     0.00148522      -322.3507365751 -3.22E+02

 *** WARNING in fm/cp_fm_elpa.F:521 :: Setting real_kernel for ELPA failed ***

     2 Broy./Diag. 0.40E+00    1.5     0.00008611      -322.3503143837  4.22E-04

 *** WARNING in fm/cp_fm_elpa.F:521 :: Setting real_kernel for ELPA failed ***

     3 Broy./Diag. 0.40E+00    1.6     0.00004824      -322.3505805237 -2.66E-04

 *** WARNING in fm/cp_fm_elpa.F:521 :: Setting real_kernel for ELPA failed ***

     4 Broy./Diag. 0.40E+00    1.6     0.00003127      -322.3507307136 -1.50E-04

 *** WARNING in fm/cp_fm_elpa.F:521 :: Setting real_kernel for ELPA failed ***

     5 Broy./Diag. 0.40E+00    1.6     0.00001011      -322.3507223005  8.41E-06

 *** WARNING in fm/cp_fm_elpa.F:521 :: Setting real_kernel for ELPA failed ***

     6 Broy./Diag. 0.40E+00    1.6     0.00000400      -322.3507256979 -3.40E-06

 *** WARNING in fm/cp_fm_elpa.F:521 :: Setting real_kernel for ELPA failed ***

     7 Broy./Diag. 0.40E+00    1.7     0.00000121      -322.3507341705 -8.47E-06

 *** WARNING in fm/cp_fm_elpa.F:521 :: Setting real_kernel for ELPA failed ***

     8 Broy./Diag. 0.40E+00    1.7     0.00000113      -322.3507442363 -1.01E-05

 *** WARNING in fm/cp_fm_elpa.F:521 :: Setting real_kernel for ELPA failed ***

     9 Broy./Diag. 0.40E+00    1.7     0.00000056      -322.3507473131 -3.08E-06

  *** SCF run converged in     9 steps ***


  Electronic density on regular grids:       -217.9999999988        0.0000000012
  Core density on regular grids:              219.9999999998       -0.0000000002
  Total charge density on r-space grids:        2.0000000011
  Total charge density g-space grids:           2.0000000011

  Overlap energy of the core charge distribution:               0.00001410538034
  Self energy of the core charge distribution:               -766.83425392616255
  Core Hamiltonian energy:                                    231.14502470617069
  Hartree energy:                                             308.92330966255201
  Exchange-correlation energy:                                -95.46752362823155
  Dispersion energy:                                           -0.11731823282411
  Electronic entropic energy:                                  -0.00000000000000
  Fermi energy:                                                -0.26395127586574

  Total energy:                                              -322.35074731311511

 ENERGY| Total FORCE_EVAL ( QS ) energy [hartree]           -322.350750887731806

 OPT| **************************************************************************
 OPT| Step number                                                            144
 OPT| Optimization method                                                   BFGS
 OPT| Total energy [hartree]                                     -322.3507508877
 OPT| Effective energy change [hartree]                            -0.0000008244
 OPT| Predicted energy change [hartree]                            -0.0000005865
 OPT| Scaling factor                                                0.7797712553
 OPT| Step size                                                     0.0037708535
 OPT| Trust radius                                                  0.3779452266
 OPT| Decrease in energy                                                     YES
 OPT| Used time [s]                                                       16.398
 OPT|
 OPT| Maximum step size                                             0.0037708535
 OPT| Convergence limit for maximum step size                       0.0030000000
 OPT| Maximum step size is converged                                          NO
 OPT|
 OPT| RMS step size                                                 0.0009353931
 OPT| Convergence limit for RMS step size                           0.0015000000
 OPT| RMS step size is converged                                             YES
 OPT|
 OPT| Maximum gradient                                              0.0001481193
 OPT| Convergence limit for maximum gradient                        0.0004500000
 OPT| Maximum gradient is converged                                          YES
 OPT|
 OPT| RMS gradient                                                  0.0000334560
 OPT| Convergence limit for RMS gradient                            0.0003000000
 OPT| RMS gradient is converged                                              YES
 OPT| **************************************************************************
 OPT| Estimated peak process memory after this step [MiB]                    716

 --------------------------
 OPTIMIZATION STEP:    145
 --------------------------

 *** WARNING in fm/cp_fm_elpa.F:521 :: Setting real_kernel for ELPA failed ***


 Number of electrons:                                                        218
 Number of occupied orbitals:                                                109
 Number of molecular orbitals:                                               146

 Number of orbital functions:                                                723
 Number of independent orbital functions:                                    723

 *** WARNING in fm/cp_fm_elpa.F:521 :: Setting real_kernel for ELPA failed ***


 Extrapolation method: ASPC


 SCF WAVEFUNCTION OPTIMIZATION

  Step     Update method      Time    Convergence         Total energy    Change
  ------------------------------------------------------------------------------

 *** WARNING in fm/cp_fm_elpa.F:521 :: Setting real_kernel for ELPA failed ***

     1 Broy./Diag. 0.40E+00    1.1     0.00098935      -322.3507453668 -3.22E+02

 *** WARNING in fm/cp_fm_elpa.F:521 :: Setting real_kernel for ELPA failed ***

     2 Broy./Diag. 0.40E+00    1.6     0.00008410      -322.3511937436 -4.48E-04

 *** WARNING in fm/cp_fm_elpa.F:521 :: Setting real_kernel for ELPA failed ***

     3 Broy./Diag. 0.40E+00    1.6     0.00003863      -322.3508408380  3.53E-04

 *** WARNING in fm/cp_fm_elpa.F:521 :: Setting real_kernel for ELPA failed ***

     4 Broy./Diag. 0.40E+00    1.6     0.00002289      -322.3507164523  1.24E-04

 *** WARNING in fm/cp_fm_elpa.F:521 :: Setting real_kernel for ELPA failed ***

     5 Broy./Diag. 0.40E+00    1.6     0.00000571      -322.3507641577 -4.77E-05

 *** WARNING in fm/cp_fm_elpa.F:521 :: Setting real_kernel for ELPA failed ***

     6 Broy./Diag. 0.40E+00    1.6     0.00000202      -322.3507619182  2.24E-06

 *** WARNING in fm/cp_fm_elpa.F:521 :: Setting real_kernel for ELPA failed ***

     7 Broy./Diag. 0.40E+00    1.7     0.00000049      -322.3507625261 -6.08E-07

  *** SCF run converged in     7 steps ***


  Electronic density on regular grids:       -217.9999999988        0.0000000012
  Core density on regular grids:              219.9999999998       -0.0000000002
  Total charge density on r-space grids:        2.0000000011
  Total charge density g-space grids:           2.0000000011

  Overlap energy of the core charge distribution:               0.00001410435177
  Self energy of the core charge distribution:               -766.83425392616255
  Core Hamiltonian energy:                                    231.14468094849013
  Hartree energy:                                             308.92354335157552
  Exchange-correlation energy:                                -95.46742830784788
  Dispersion energy:                                           -0.11731869645758
  Electronic entropic energy:                                  -0.00000000000000
  Fermi energy:                                                -0.26393432493098

  Total energy:                                              -322.35076252605063

 ENERGY| Total FORCE_EVAL ( QS ) energy [hartree]           -322.350751562968981

 OPT| **************************************************************************
 OPT| Step number                                                            145
 OPT| Optimization method                                                   BFGS
 OPT| Total energy [hartree]                                     -322.3507515630
 OPT| Effective energy change [hartree]                            -0.0000006752
 OPT| Predicted energy change [hartree]                            -0.0000004579
 OPT| Scaling factor                                                0.7797712553
 OPT| Step size                                                     0.0038308881
 OPT| Trust radius                                                  0.3779452266
 OPT| Decrease in energy                                                     YES
 OPT| Used time [s]                                                       13.002
 OPT|
 OPT| Maximum step size                                             0.0038308881
 OPT| Convergence limit for maximum step size                       0.0030000000
 OPT| Maximum step size is converged                                          NO
 OPT|
 OPT| RMS step size                                                 0.0009694421
 OPT| Convergence limit for RMS step size                           0.0015000000
 OPT| RMS step size is converged                                             YES
 OPT|
 OPT| Maximum gradient                                              0.0001261352
 OPT| Convergence limit for maximum gradient                        0.0004500000
 OPT| Maximum gradient is converged                                          YES
 OPT|
 OPT| RMS gradient                                                  0.0000314698
 OPT| Convergence limit for RMS gradient                            0.0003000000
 OPT| RMS gradient is converged                                              YES
 OPT| **************************************************************************
 OPT| Estimated peak process memory after this step [MiB]                    716

 --------------------------
 OPTIMIZATION STEP:    146
 --------------------------

 *** WARNING in fm/cp_fm_elpa.F:521 :: Setting real_kernel for ELPA failed ***


 Number of electrons:                                                        218
 Number of occupied orbitals:                                                109
 Number of molecular orbitals:                                               146

 Number of orbital functions:                                                723
 Number of independent orbital functions:                                    723

 *** WARNING in fm/cp_fm_elpa.F:521 :: Setting real_kernel for ELPA failed ***


 Extrapolation method: ASPC


 SCF WAVEFUNCTION OPTIMIZATION

  Step     Update method      Time    Convergence         Total energy    Change
  ------------------------------------------------------------------------------

 *** WARNING in fm/cp_fm_elpa.F:521 :: Setting real_kernel for ELPA failed ***

     1 Broy./Diag. 0.40E+00    1.1     0.00055151      -322.3507476585 -3.22E+02

 *** WARNING in fm/cp_fm_elpa.F:521 :: Setting real_kernel for ELPA failed ***

     2 Broy./Diag. 0.40E+00    1.5     0.00006946      -322.3508191665 -7.15E-05

 *** WARNING in fm/cp_fm_elpa.F:521 :: Setting real_kernel for ELPA failed ***

     3 Broy./Diag. 0.40E+00    1.6     0.00003574      -322.3506944287  1.25E-04

 *** WARNING in fm/cp_fm_elpa.F:521 :: Setting real_kernel for ELPA failed ***

     4 Broy./Diag. 0.40E+00    1.6     0.00001582      -322.3507621033 -6.77E-05

 *** WARNING in fm/cp_fm_elpa.F:521 :: Setting real_kernel for ELPA failed ***

     5 Broy./Diag. 0.40E+00    1.6     0.00000724      -322.3507412323  2.09E-05

 *** WARNING in fm/cp_fm_elpa.F:521 :: Setting real_kernel for ELPA failed ***

     6 Broy./Diag. 0.40E+00    1.7     0.00000353      -322.3507562999 -1.51E-05

 *** WARNING in fm/cp_fm_elpa.F:521 :: Setting real_kernel for ELPA failed ***

     7 Broy./Diag. 0.40E+00    1.7     0.00000070      -322.3507501222  6.18E-06

  *** SCF run converged in     7 steps ***


  Electronic density on regular grids:       -217.9999999988        0.0000000012
  Core density on regular grids:              219.9999999998       -0.0000000002
  Total charge density on r-space grids:        2.0000000011
  Total charge density g-space grids:           2.0000000011

  Overlap energy of the core charge distribution:               0.00001410498642
  Self energy of the core charge distribution:               -766.83425392616255
  Core Hamiltonian energy:                                    231.14470178119151
  Hartree energy:                                             308.92352327039032
  Exchange-correlation energy:                                -95.46741598741707
  Dispersion energy:                                           -0.11731936522374
  Electronic entropic energy:                                  -0.00000000000000
  Fermi energy:                                                -0.26391031362975

  Total energy:                                              -322.35075012223507

 ENERGY| Total FORCE_EVAL ( QS ) energy [hartree]           -322.350752274445824

 OPT| **************************************************************************
 OPT| Step number                                                            146
 OPT| Optimization method                                                   BFGS
 OPT| Total energy [hartree]                                     -322.3507522744
 OPT| Effective energy change [hartree]                            -0.0000007115
 OPT| Predicted energy change [hartree]                            -0.0000004896
 OPT| Scaling factor                                                0.7797712553
 OPT| Step size                                                     0.0043635840
 OPT| Trust radius                                                  0.3779452266
 OPT| Decrease in energy                                                     YES
 OPT| Used time [s]                                                       13.199
 OPT|
 OPT| Maximum step size                                             0.0043635840
 OPT| Convergence limit for maximum step size                       0.0030000000
 OPT| Maximum step size is converged                                          NO
 OPT|
 OPT| RMS step size                                                 0.0011434088
 OPT| Convergence limit for RMS step size                           0.0015000000
 OPT| RMS step size is converged                                             YES
 OPT|
 OPT| Maximum gradient                                              0.0001224815
 OPT| Convergence limit for maximum gradient                        0.0004500000
 OPT| Maximum gradient is converged                                          YES
 OPT|
 OPT| RMS gradient                                                  0.0000319317
 OPT| Convergence limit for RMS gradient                            0.0003000000
 OPT| RMS gradient is converged                                              YES
 OPT| **************************************************************************
 OPT| Estimated peak process memory after this step [MiB]                    716

 --------------------------
 OPTIMIZATION STEP:    147
 --------------------------

 *** WARNING in fm/cp_fm_elpa.F:521 :: Setting real_kernel for ELPA failed ***


 Number of electrons:                                                        218
 Number of occupied orbitals:                                                109
 Number of molecular orbitals:                                               146

 Number of orbital functions:                                                723
 Number of independent orbital functions:                                    723

 *** WARNING in fm/cp_fm_elpa.F:521 :: Setting real_kernel for ELPA failed ***


 Extrapolation method: ASPC


 SCF WAVEFUNCTION OPTIMIZATION

  Step     Update method      Time    Convergence         Total energy    Change
  ------------------------------------------------------------------------------

 *** WARNING in fm/cp_fm_elpa.F:521 :: Setting real_kernel for ELPA failed ***

     1 Broy./Diag. 0.40E+00    1.2     0.00070115      -322.3507471701 -3.22E+02

 *** WARNING in fm/cp_fm_elpa.F:521 :: Setting real_kernel for ELPA failed ***

     2 Broy./Diag. 0.40E+00    1.6     0.00008820      -322.3515221218 -7.75E-04

 *** WARNING in fm/cp_fm_elpa.F:521 :: Setting real_kernel for ELPA failed ***

     3 Broy./Diag. 0.40E+00    1.6     0.00004564      -322.3508056944  7.16E-04

 *** WARNING in fm/cp_fm_elpa.F:521 :: Setting real_kernel for ELPA failed ***

     4 Broy./Diag. 0.40E+00    1.7     0.00001552      -322.3507464928  5.92E-05

 *** WARNING in fm/cp_fm_elpa.F:521 :: Setting real_kernel for ELPA failed ***

     5 Broy./Diag. 0.40E+00    1.7     0.00000585      -322.3507350411  1.15E-05

 *** WARNING in fm/cp_fm_elpa.F:521 :: Setting real_kernel for ELPA failed ***

     6 Broy./Diag. 0.40E+00    1.7     0.00000215      -322.3507645411 -2.95E-05

 *** WARNING in fm/cp_fm_elpa.F:521 :: Setting real_kernel for ELPA failed ***

     7 Broy./Diag. 0.40E+00    1.7     0.00000068      -322.3507587629  5.78E-06

  *** SCF run converged in     7 steps ***


  Electronic density on regular grids:       -217.9999999988        0.0000000012
  Core density on regular grids:              219.9999999998       -0.0000000002
  Total charge density on r-space grids:        2.0000000011
  Total charge density g-space grids:           2.0000000011

  Overlap energy of the core charge distribution:               0.00001410580808
  Self energy of the core charge distribution:               -766.83425392616255
  Core Hamiltonian energy:                                    231.14464680906718
  Hartree energy:                                             308.92355321283452
  Exchange-correlation energy:                                -95.46739845364925
  Dispersion energy:                                           -0.11732051078566
  Electronic entropic energy:                                  -0.00000000000000
  Fermi energy:                                                -0.26389757948984

  Total energy:                                              -322.35075876288772

 ENERGY| Total FORCE_EVAL ( QS ) energy [hartree]           -322.350752964447850

 OPT| **************************************************************************
 OPT| Step number                                                            147
 OPT| Optimization method                                                   BFGS
 OPT| Total energy [hartree]                                     -322.3507529644
 OPT| Effective energy change [hartree]                            -0.0000006900
 OPT| Predicted energy change [hartree]                            -0.0000004730
 OPT| Scaling factor                                                0.7797712553
 OPT| Step size                                                     0.0053681623
 OPT| Trust radius                                                  0.3779452266
 OPT| Decrease in energy                                                     YES
 OPT| Used time [s]                                                       13.524
 OPT|
 OPT| Maximum step size                                             0.0053681623
 OPT| Convergence limit for maximum step size                       0.0030000000
 OPT| Maximum step size is converged                                          NO
 OPT|
 OPT| RMS step size                                                 0.0013152880
 OPT| Convergence limit for RMS step size                           0.0015000000
 OPT| RMS step size is converged                                             YES
 OPT|
 OPT| Maximum gradient                                              0.0001326532
 OPT| Convergence limit for maximum gradient                        0.0004500000
 OPT| Maximum gradient is converged                                          YES
 OPT|
 OPT| RMS gradient                                                  0.0000324343
 OPT| Convergence limit for RMS gradient                            0.0003000000
 OPT| RMS gradient is converged                                              YES
 OPT| **************************************************************************
 OPT| Estimated peak process memory after this step [MiB]                    716

 --------------------------
 OPTIMIZATION STEP:    148
 --------------------------

 *** WARNING in fm/cp_fm_elpa.F:521 :: Setting real_kernel for ELPA failed ***


 Number of electrons:                                                        218
 Number of occupied orbitals:                                                109
 Number of molecular orbitals:                                               146

 Number of orbital functions:                                                723
 Number of independent orbital functions:                                    723

 *** WARNING in fm/cp_fm_elpa.F:521 :: Setting real_kernel for ELPA failed ***


 Extrapolation method: ASPC


 SCF WAVEFUNCTION OPTIMIZATION

  Step     Update method      Time    Convergence         Total energy    Change
  ------------------------------------------------------------------------------

 *** WARNING in fm/cp_fm_elpa.F:521 :: Setting real_kernel for ELPA failed ***

     1 Broy./Diag. 0.40E+00    1.2     0.00058903      -322.3507483497 -3.22E+02

 *** WARNING in fm/cp_fm_elpa.F:521 :: Setting real_kernel for ELPA failed ***

     2 Broy./Diag. 0.40E+00    1.6     0.00008271      -322.3512620819 -5.14E-04

 *** WARNING in fm/cp_fm_elpa.F:521 :: Setting real_kernel for ELPA failed ***

     3 Broy./Diag. 0.40E+00    1.7     0.00003895      -322.3507594133  5.03E-04

 *** WARNING in fm/cp_fm_elpa.F:521 :: Setting real_kernel for ELPA failed ***

     4 Broy./Diag. 0.40E+00    1.7     0.00002873      -322.3507606062 -1.19E-06

 *** WARNING in fm/cp_fm_elpa.F:521 :: Setting real_kernel for ELPA failed ***

     5 Broy./Diag. 0.40E+00    1.7     0.00001056      -322.3507291503  3.15E-05

 *** WARNING in fm/cp_fm_elpa.F:521 :: Setting real_kernel for ELPA failed ***

     6 Broy./Diag. 0.40E+00    1.7     0.00000361      -322.3507611984 -3.20E-05

 *** WARNING in fm/cp_fm_elpa.F:521 :: Setting real_kernel for ELPA failed ***

     7 Broy./Diag. 0.40E+00    1.7     0.00000079      -322.3507554683  5.73E-06

  *** SCF run converged in     7 steps ***


  Electronic density on regular grids:       -217.9999999988        0.0000000012
  Core density on regular grids:              219.9999999998       -0.0000000002
  Total charge density on r-space grids:        2.0000000011
  Total charge density g-space grids:           2.0000000011

  Overlap energy of the core charge distribution:               0.00001410668743
  Self energy of the core charge distribution:               -766.83425392616255
  Core Hamiltonian energy:                                    231.14469762610065
  Hartree energy:                                             308.92351175548015
  Exchange-correlation energy:                                -95.46740342161371
  Dispersion energy:                                           -0.11732160882514
  Electronic entropic energy:                                  -0.00000000000000
  Fermi energy:                                                -0.26388985406883

  Total energy:                                              -322.35075546833315

 ENERGY| Total FORCE_EVAL ( QS ) energy [hartree]           -322.350753638488641

 OPT| **************************************************************************
 OPT| Step number                                                            148
 OPT| Optimization method                                                   BFGS
 OPT| Total energy [hartree]                                     -322.3507536385
 OPT| Effective energy change [hartree]                            -0.0000006740
 OPT| Predicted energy change [hartree]                            -0.0000004699
 OPT| Scaling factor                                                0.7797712553
 OPT| Step size                                                     0.0053839613
 OPT| Trust radius                                                  0.3779452266
 OPT| Decrease in energy                                                     YES
 OPT| Used time [s]                                                       13.538
 OPT|
 OPT| Maximum step size                                             0.0053839613
 OPT| Convergence limit for maximum step size                       0.0030000000
 OPT| Maximum step size is converged                                          NO
 OPT|
 OPT| RMS step size                                                 0.0013029841
 OPT| Convergence limit for RMS step size                           0.0015000000
 OPT| RMS step size is converged                                             YES
 OPT|
 OPT| Maximum gradient                                              0.0001915216
 OPT| Convergence limit for maximum gradient                        0.0004500000
 OPT| Maximum gradient is converged                                          YES
 OPT|
 OPT| RMS gradient                                                  0.0000325451
 OPT| Convergence limit for RMS gradient                            0.0003000000
 OPT| RMS gradient is converged                                              YES
 OPT| **************************************************************************
 OPT| Estimated peak process memory after this step [MiB]                    716

 --------------------------
 OPTIMIZATION STEP:    149
 --------------------------

 *** WARNING in fm/cp_fm_elpa.F:521 :: Setting real_kernel for ELPA failed ***


 Number of electrons:                                                        218
 Number of occupied orbitals:                                                109
 Number of molecular orbitals:                                               146

 Number of orbital functions:                                                723
 Number of independent orbital functions:                                    723

 *** WARNING in fm/cp_fm_elpa.F:521 :: Setting real_kernel for ELPA failed ***


 Extrapolation method: ASPC


 SCF WAVEFUNCTION OPTIMIZATION

  Step     Update method      Time    Convergence         Total energy    Change
  ------------------------------------------------------------------------------

 *** WARNING in fm/cp_fm_elpa.F:521 :: Setting real_kernel for ELPA failed ***

     1 Broy./Diag. 0.40E+00    1.2     0.00058226      -322.3507502218 -3.22E+02

 *** WARNING in fm/cp_fm_elpa.F:521 :: Setting real_kernel for ELPA failed ***

     2 Broy./Diag. 0.40E+00    1.6     0.00007552      -322.3515003933 -7.50E-04

 *** WARNING in fm/cp_fm_elpa.F:521 :: Setting real_kernel for ELPA failed ***

     3 Broy./Diag. 0.40E+00    1.7     0.00004460      -322.3508040260  6.96E-04

 *** WARNING in fm/cp_fm_elpa.F:521 :: Setting real_kernel for ELPA failed ***

     4 Broy./Diag. 0.40E+00    1.7     0.00002045      -322.3507698459  3.42E-05

 *** WARNING in fm/cp_fm_elpa.F:521 :: Setting real_kernel for ELPA failed ***

     5 Broy./Diag. 0.40E+00    1.7     0.00000623      -322.3507257019  4.41E-05

 *** WARNING in fm/cp_fm_elpa.F:521 :: Setting real_kernel for ELPA failed ***

     6 Broy./Diag. 0.40E+00    1.7     0.00000248      -322.3507594633 -3.38E-05

 *** WARNING in fm/cp_fm_elpa.F:521 :: Setting real_kernel for ELPA failed ***

     7 Broy./Diag. 0.40E+00    1.7     0.00000060      -322.3507558222  3.64E-06

  *** SCF run converged in     7 steps ***


  Electronic density on regular grids:       -217.9999999988        0.0000000012
  Core density on regular grids:              219.9999999998       -0.0000000002
  Total charge density on r-space grids:        2.0000000011
  Total charge density g-space grids:           2.0000000011

  Overlap energy of the core charge distribution:               0.00001410673193
  Self energy of the core charge distribution:               -766.83425392616255
  Core Hamiltonian energy:                                    231.14450375203435
  Hartree energy:                                             308.92365348340297
  Exchange-correlation energy:                                -95.46735128983741
  Dispersion energy:                                           -0.11732194834196
  Electronic entropic energy:                                  -0.00000000000000
  Fermi energy:                                                -0.26389304631519

  Total energy:                                              -322.35075582217274

 ENERGY| Total FORCE_EVAL ( QS ) energy [hartree]           -322.350754220571446

 OPT| **************************************************************************
 OPT| Step number                                                            149
 OPT| Optimization method                                                   BFGS
 OPT| Total energy [hartree]                                     -322.3507542206
 OPT| Effective energy change [hartree]                            -0.0000005821
 OPT| Predicted energy change [hartree]                            -0.0000004086
 OPT| Scaling factor                                                0.7797712553
 OPT| Step size                                                     0.0048694924
 OPT| Trust radius                                                  0.3779452266
 OPT| Decrease in energy                                                     YES
 OPT| Used time [s]                                                       13.541
 OPT|
 OPT| Maximum step size                                             0.0048694924
 OPT| Convergence limit for maximum step size                       0.0030000000
 OPT| Maximum step size is converged                                          NO
 OPT|
 OPT| RMS step size                                                 0.0011202126
 OPT| Convergence limit for RMS step size                           0.0015000000
 OPT| RMS step size is converged                                             YES
 OPT|
 OPT| Maximum gradient                                              0.0001588843
 OPT| Convergence limit for maximum gradient                        0.0004500000
 OPT| Maximum gradient is converged                                          YES
 OPT|
 OPT| RMS gradient                                                  0.0000287396
 OPT| Convergence limit for RMS gradient                            0.0003000000
 OPT| RMS gradient is converged                                              YES
 OPT| **************************************************************************
 OPT| Estimated peak process memory after this step [MiB]                    716

 --------------------------
 OPTIMIZATION STEP:    150
 --------------------------

 *** WARNING in fm/cp_fm_elpa.F:521 :: Setting real_kernel for ELPA failed ***


 Number of electrons:                                                        218
 Number of occupied orbitals:                                                109
 Number of molecular orbitals:                                               146

 Number of orbital functions:                                                723
 Number of independent orbital functions:                                    723

 *** WARNING in fm/cp_fm_elpa.F:521 :: Setting real_kernel for ELPA failed ***


 Extrapolation method: ASPC


 SCF WAVEFUNCTION OPTIMIZATION

  Step     Update method      Time    Convergence         Total energy    Change
  ------------------------------------------------------------------------------

 *** WARNING in fm/cp_fm_elpa.F:521 :: Setting real_kernel for ELPA failed ***

     1 Broy./Diag. 0.40E+00    1.2     0.00046164      -322.3507527987 -3.22E+02

 *** WARNING in fm/cp_fm_elpa.F:521 :: Setting real_kernel for ELPA failed ***

     2 Broy./Diag. 0.40E+00    1.6     0.00004222      -322.3510944132 -3.42E-04

 *** WARNING in fm/cp_fm_elpa.F:521 :: Setting real_kernel for ELPA failed ***

     3 Broy./Diag. 0.40E+00    1.7     0.00003165      -322.3507803918  3.14E-04

 *** WARNING in fm/cp_fm_elpa.F:521 :: Setting real_kernel for ELPA failed ***

     4 Broy./Diag. 0.40E+00    1.7     0.00001398      -322.3507644956  1.59E-05

 *** WARNING in fm/cp_fm_elpa.F:521 :: Setting real_kernel for ELPA failed ***

     5 Broy./Diag. 0.40E+00    1.7     0.00000439      -322.3507334231  3.11E-05

 *** WARNING in fm/cp_fm_elpa.F:521 :: Setting real_kernel for ELPA failed ***

     6 Broy./Diag. 0.40E+00    1.7     0.00000171      -322.3507570040 -2.36E-05

 *** WARNING in fm/cp_fm_elpa.F:521 :: Setting real_kernel for ELPA failed ***

     7 Broy./Diag. 0.40E+00    1.7     0.00000035      -322.3507543611  2.64E-06

  *** SCF run converged in     7 steps ***


  Electronic density on regular grids:       -217.9999999988        0.0000000012
  Core density on regular grids:              219.9999999998       -0.0000000002
  Total charge density on r-space grids:        2.0000000011
  Total charge density g-space grids:           2.0000000011

  Overlap energy of the core charge distribution:               0.00001410580642
  Self energy of the core charge distribution:               -766.83425392616255
  Core Hamiltonian energy:                                    231.14426122173305
  Hartree energy:                                             308.92383082837267
  Exchange-correlation energy:                                -95.46728467322885
  Dispersion energy:                                           -0.11732191759359
  Electronic entropic energy:                                  -0.00000000000000
  Fermi energy:                                                -0.26389739921461

  Total energy:                                              -322.35075436107292

 ENERGY| Total FORCE_EVAL ( QS ) energy [hartree]           -322.350754664324427

 OPT| **************************************************************************
 OPT| Step number                                                            150
 OPT| Optimization method                                                   BFGS
 OPT| Total energy [hartree]                                     -322.3507546643
 OPT| Effective energy change [hartree]                            -0.0000004438
 OPT| Predicted energy change [hartree]                            -0.0000003181
 OPT| Scaling factor                                                0.7797712553
 OPT| Step size                                                     0.0032576327
 OPT| Trust radius                                                  0.3779452266
 OPT| Decrease in energy                                                     YES
 OPT| Used time [s]                                                       13.535
 OPT|
 OPT| Maximum step size                                             0.0032576327
 OPT| Convergence limit for maximum step size                       0.0030000000
 OPT| Maximum step size is converged                                          NO
 OPT|
 OPT| RMS step size                                                 0.0007642163
 OPT| Convergence limit for RMS step size                           0.0015000000
 OPT| RMS step size is converged                                             YES
 OPT|
 OPT| Maximum gradient                                              0.0001141156
 OPT| Convergence limit for maximum gradient                        0.0004500000
 OPT| Maximum gradient is converged                                          YES
 OPT|
 OPT| RMS gradient                                                  0.0000245597
 OPT| Convergence limit for RMS gradient                            0.0003000000
 OPT| RMS gradient is converged                                              YES
 OPT| **************************************************************************
 OPT| Estimated peak process memory after this step [MiB]                    716

 --------------------------
 OPTIMIZATION STEP:    151
 --------------------------

 *** WARNING in fm/cp_fm_elpa.F:521 :: Setting real_kernel for ELPA failed ***


 Number of electrons:                                                        218
 Number of occupied orbitals:                                                109
 Number of molecular orbitals:                                               146

 Number of orbital functions:                                                723
 Number of independent orbital functions:                                    723

 *** WARNING in fm/cp_fm_elpa.F:521 :: Setting real_kernel for ELPA failed ***


 Extrapolation method: ASPC


 SCF WAVEFUNCTION OPTIMIZATION

  Step     Update method      Time    Convergence         Total energy    Change
  ------------------------------------------------------------------------------

 *** WARNING in fm/cp_fm_elpa.F:521 :: Setting real_kernel for ELPA failed ***

     1 Broy./Diag. 0.40E+00    1.2     0.00038077      -322.3507538022 -3.22E+02

 *** WARNING in fm/cp_fm_elpa.F:521 :: Setting real_kernel for ELPA failed ***

     2 Broy./Diag. 0.40E+00    1.6     0.00004503      -322.3508856397 -1.32E-04

 *** WARNING in fm/cp_fm_elpa.F:521 :: Setting real_kernel for ELPA failed ***

     3 Broy./Diag. 0.40E+00    1.7     0.00003324      -322.3507614035  1.24E-04

 *** WARNING in fm/cp_fm_elpa.F:521 :: Setting real_kernel for ELPA failed ***

     4 Broy./Diag. 0.40E+00    1.7     0.00001201      -322.3507441037  1.73E-05

 *** WARNING in fm/cp_fm_elpa.F:521 :: Setting real_kernel for ELPA failed ***

     5 Broy./Diag. 0.40E+00    1.7     0.00000253      -322.3507410031  3.10E-06

 *** WARNING in fm/cp_fm_elpa.F:521 :: Setting real_kernel for ELPA failed ***

     6 Broy./Diag. 0.40E+00    1.7     0.00000071      -322.3507490862 -8.08E-06

  *** SCF run converged in     6 steps ***


  Electronic density on regular grids:       -217.9999999988        0.0000000012
  Core density on regular grids:              219.9999999998       -0.0000000002
  Total charge density on r-space grids:        2.0000000011
  Total charge density g-space grids:           2.0000000011

  Overlap energy of the core charge distribution:               0.00001410462375
  Self energy of the core charge distribution:               -766.83425392616255
  Core Hamiltonian energy:                                    231.14392031363315
  Hartree energy:                                             308.92408460967869
  Exchange-correlation energy:                                -95.46719210800065
  Dispersion energy:                                           -0.11732208000046
  Electronic entropic energy:                                  -0.00000000000000
  Fermi energy:                                                -0.26390430609307

  Total energy:                                              -322.35074908622795

 ENERGY| Total FORCE_EVAL ( QS ) energy [hartree]           -322.350754970717560

 OPT| **************************************************************************
 OPT| Step number                                                            151
 OPT| Optimization method                                                   BFGS
 OPT| Total energy [hartree]                                     -322.3507549707
 OPT| Effective energy change [hartree]                            -0.0000003064
 OPT| Predicted energy change [hartree]                            -0.0000002185
 OPT| Scaling factor                                                0.7797712553
 OPT| Step size                                                     0.0025326070
 OPT| Trust radius                                                  0.3779452266
 OPT| Decrease in energy                                                     YES
 OPT| Used time [s]                                                       11.793
 OPT|
 OPT| Maximum step size                                             0.0025326070
 OPT| Convergence limit for maximum step size                       0.0030000000
 OPT| Maximum step size is converged                                         YES
 OPT|
 OPT| RMS step size                                                 0.0005746462
 OPT| Convergence limit for RMS step size                           0.0015000000
 OPT| RMS step size is converged                                             YES
 OPT|
 OPT| Maximum gradient                                              0.0000811933
 OPT| Convergence limit for maximum gradient                        0.0004500000
 OPT| Maximum gradient is converged                                          YES
 OPT|
 OPT| RMS gradient                                                  0.0000191995
 OPT| Convergence limit for RMS gradient                            0.0003000000
 OPT| RMS gradient is converged                                              YES
 OPT| **************************************************************************
 OPT| Estimated peak process memory after this step [MiB]                    716

 *******************************************************************************
 ***                    GEOMETRY OPTIMIZATION COMPLETED                      ***
 *******************************************************************************

                    Reevaluating energy at the minimum

 Number of electrons:                                                        218
 Number of occupied orbitals:                                                109
 Number of molecular orbitals:                                               146

 Number of orbital functions:                                                723
 Number of independent orbital functions:                                    723

 *** WARNING in fm/cp_fm_elpa.F:521 :: Setting real_kernel for ELPA failed ***


 Extrapolation method: ASPC


 SCF WAVEFUNCTION OPTIMIZATION

  Step     Update method      Time    Convergence         Total energy    Change
  ------------------------------------------------------------------------------

 *** WARNING in fm/cp_fm_elpa.F:521 :: Setting real_kernel for ELPA failed ***

     1 Broy./Diag. 0.40E+00    1.2     0.00041088      -322.3507542962 -3.22E+02

 *** WARNING in fm/cp_fm_elpa.F:521 :: Setting real_kernel for ELPA failed ***

     2 Broy./Diag. 0.40E+00    1.6     0.00003576      -322.3505634526  1.91E-04

 *** WARNING in fm/cp_fm_elpa.F:521 :: Setting real_kernel for ELPA failed ***

     3 Broy./Diag. 0.40E+00    1.7     0.00001089      -322.3507373079 -1.74E-04

 *** WARNING in fm/cp_fm_elpa.F:521 :: Setting real_kernel for ELPA failed ***

     4 Broy./Diag. 0.40E+00    1.7     0.00000674      -322.3507442846 -6.98E-06

 *** WARNING in fm/cp_fm_elpa.F:521 :: Setting real_kernel for ELPA failed ***

     5 Broy./Diag. 0.40E+00    1.7     0.00000193      -322.3507646695 -2.04E-05

 *** WARNING in fm/cp_fm_elpa.F:521 :: Setting real_kernel for ELPA failed ***

     6 Broy./Diag. 0.40E+00    1.7     0.00000046      -322.3507571443  7.53E-06

  *** SCF run converged in     6 steps ***


  Electronic density on regular grids:       -217.9999999988        0.0000000012
  Core density on regular grids:              219.9999999998       -0.0000000002
  Total charge density on r-space grids:        2.0000000011
  Total charge density g-space grids:           2.0000000011

  Overlap energy of the core charge distribution:               0.00001410462375
  Self energy of the core charge distribution:               -766.83425392616255
  Core Hamiltonian energy:                                    231.14391873349138
  Hartree energy:                                             308.92408173175068
  Exchange-correlation energy:                                -95.46719570800701
  Dispersion energy:                                           -0.11732208000046
  Electronic entropic energy:                                  -0.00000000000000
  Fermi energy:                                                -0.26390357029681

  Total energy:                                              -322.35075714430411

 ENERGY| Total FORCE_EVAL ( QS ) energy [hartree]           -322.350757144304112

 -------------------------------------------------------------------------------
 -                                                                             -
 -                                DBCSR STATISTICS                             -
 -                                                                             -
 -------------------------------------------------------------------------------
 COUNTER                                    TOTAL       BLAS       SMM       ACC
 flops    14 x    18 x    14              5292000     100.0%      0.0%      0.0%     
 flops    14 x    32 x    14             37632000     100.0%      0.0%      0.0%     
 flops    14 x    14 x    50             45452400     100.0%      0.0%      0.0%     
 flops    14 x    18 x     5             56700000     100.0%      0.0%      0.0%     
 flops     5 x    18 x    14             56700000     100.0%      0.0%      0.0%     
 flops    14 x    14 x    32             87268608     100.0%      0.0%      0.0%     
 flops    14 x    18 x    13            211302000     100.0%      0.0%      0.0%     
 flops    13 x    18 x    14            211302000     100.0%      0.0%      0.0%     
 flops     5 x    14 x    50            227262000     100.0%      0.0%      0.0%     
 flops    14 x     5 x    50            259728000     100.0%      0.0%      0.0%     
 flops    14 x    32 x     5            403200000     100.0%      0.0%      0.0%     
 flops     5 x    32 x    14            403200000     100.0%      0.0%      0.0%     
 flops     5 x    14 x    32            436343040     100.0%      0.0%      0.0%     
 flops    14 x     5 x    32            498677760     100.0%      0.0%      0.0%     
 flops     5 x    18 x     5            607500000     100.0%      0.0%      0.0%     
 flops    14 x    13 x    50            886321800     100.0%      0.0%      0.0%     
 flops    13 x    14 x    50            928527600     100.0%      0.0%      0.0%     
 flops    14 x    32 x    13           1502592000     100.0%      0.0%      0.0%     
 flops    13 x    32 x    14           1502592000     100.0%      0.0%      0.0%     
 flops    14 x    13 x    32           1701737856     100.0%      0.0%      0.0%     
 flops    13 x    14 x    32           1782772992     100.0%      0.0%      0.0%     
 flops     5 x    18 x    13           2263950000     100.0%      0.0%      0.0%     
 flops    13 x    18 x     5           2263950000     100.0%      0.0%      0.0%     
 flops     5 x     5 x    50           2695837500     100.0%      0.0%      0.0%     
 flops     5 x    32 x     5           4320000000     100.0%      0.0%      0.0%     
 flops     5 x     5 x    32           5176008000     100.0%      0.0%      0.0%     
 flops    13 x    18 x    13           8436987000     100.0%      0.0%      0.0%     
 flops     5 x    13 x    50           9722407500     100.0%      0.0%      0.0%     
 flops    13 x     5 x    50           9722407500     100.0%      0.0%      0.0%     
 flops     5 x    32 x    13          16099200000     100.0%      0.0%      0.0%     
 flops    13 x    32 x     5          16099200000     100.0%      0.0%      0.0%     
 flops     5 x    13 x    32          18667022400     100.0%      0.0%      0.0%     
 flops    13 x     5 x    32          18667022400     100.0%      0.0%      0.0%     
 flops    13 x    13 x    50          37074780600     100.0%      0.0%      0.0%     
 flops    13 x    32 x    13          59996352000     100.0%      0.0%      0.0%     
 flops    13 x    13 x    32          71183578752     100.0%      0.0%      0.0%     
 flops inhomo. stacks                           0       0.0%      0.0%      0.0%
 flops total                       294.240808E+09     100.0%      0.0%      0.0%
 flops max/rank                     22.348164E+09     100.0%      0.0%      0.0%
 matmuls inhomo. stacks                         0       0.0%      0.0%      0.0%
 matmuls total                           46275900     100.0%      0.0%      0.0%
 number of processed stacks               1055106     100.0%      0.0%      0.0%
 average stack size                                    43.9       0.0       0.0
 marketing flops                   378.741981E+09
 -------------------------------------------------------------------------------
 # multiplications                           3069
 max memory usage/rank              23.129952E+09
 # max total images/rank                        1
 # max 3D layers                                1
 # MPI messages exchanged                  294624
 MPI messages size (bytes):
  total size                        23.059481E+09
  min size                          45.568000E+03
  max size                         267.912000E+03
  average size                      78.267492E+03
 MPI breakdown and total messages size (bytes):
             size <=      128                   0                        0
       128 < size <=     8192                   0                        0
      8192 < size <=    32768                   0                        0
     32768 < size <=   131072              258624              13649916096
    131072 < size <=  4194304               36000               9409122000
   4194304 < size <= 16777216                   0                        0
  16777216 < size                               0                        0
 -------------------------------------------------------------------------------
 -                                                                             -
 -                      DBCSR MESSAGE PASSING PERFORMANCE                      -
 -                                                                             -
 -------------------------------------------------------------------------------
 ROUTINE             CALLS      AVE VOLUME [Bytes]
 MP_Bcast               37                     12.
 MP_Allreduce        13936                      8.
 MP_Alltoall         78870                  64172.
 MP_ISend            49104                  31194.
 MP_IRecv            49104                  28875.
 -------------------------------------------------------------------------------

 -------------------------------------------------------------------------------
 -                                                                             -
 -                                DBM STATISTICS                               -
 -                                                                             -
 -------------------------------------------------------------------------------
    M  x    N  x    K                                          COUNT     PERCENT
 -------------------------------------------------------------------------------

 -------------------------------------------------------------------------------
 -                                                                             -
 -                                GRID STATISTICS                              -
 -                                                                             -
 -------------------------------------------------------------------------------
 LP    KERNEL             BACKEND                              COUNT     PERCENT
 3     collocate general  CPU                               33022072      22.74%
 3     integrate general  CPU                               31611822      21.77%
 4     integrate general  CPU                               26747932      18.42%
 4     collocate general  CPU                               26287573      18.10%
 2     collocate general  CPU                               13126272       9.04%
 2     integrate general  CPU                               12199815       8.40%
 5     integrate general  CPU                                1842917       1.27%
 0     collocate general  CPU                                 181152       0.12%
 1     integrate general  CPU                                 179968       0.12%
 -------------------------------------------------------------------------------

 MEMORY| Estimated peak process memory [MiB]                                 716

 -------------------------------------------------------------------------------
 -                                                                             -
 -                         MESSAGE PASSING PERFORMANCE                         -
 -                                                                             -
 -------------------------------------------------------------------------------

 ROUTINE             CALLS      AVE VOLUME [Bytes]
 MP_Group                5
 MP_Bcast             4947                 207849.
 MP_Allreduce        44613                    191.
 MP_Sync              2323
 MP_Alltoall         45182               19600036.
 MP_SendRecv        106680                 344465.
 MP_ISendRecv        97515                 376560.
 MP_Wait            148555
 MP_comm_split         152
 MP_ISend            37120                3360366.
 MP_IRecv            37120                3360366.
 -------------------------------------------------------------------------------


 -------------------------------------------------------------------------------
 -                                                                             -
 -                           R E F E R E N C E S                               -
 -                                                                             -
 -------------------------------------------------------------------------------
 
 CP2K version 2025.2, the CP2K developers group (2025).
 CP2K is freely available from https://www.cp2k.org/ .
 
 T. D. Kuehne, M. Iannuzzi, M. Del Ben, V. V. Rybkin, P. Seewald, F. Stein, T. 
 Laino, R. Z. Khaliullin, O. Schuett, F. Schiffmann, D. Golze, J. Wilhelm, S. 
 Chulkov, M. H. Bani-Hashemian, V. Weber, U. Borstnik, M. Taillefumier, A. S. 
 Jakobovits, A. Lazzaro, H. Pabst, T. Mueller, R. Schade, M. Guidon, S. 
 Andermatt, N. Holmberg, G. K. Schenter, A. Hehn, A. Bussy, F. Belleflamme, G. 
 Tabacchi, A. Gloess, M. Lass, I. Bethune, C. J. Mundy, C. Plessl, M. Watkins, 
 J. VandeVondele, M. Krack, J. Hutter.
 J. Chem. Phys. 152, 194103 (2020).
 CP2K: An electronic structure and molecular dynamics software package - 
 Quickstep: Efficient and accurate electronic structure calculations.
 https://doi.org/10.1063/5.0007045

 L. Goerigk, A. Hansen, C. Bauer, S. Ehrlich, A. Najibi, S. Grimme.
 Phys. Chem. Chem. Phys. 19, 32184-32215 (2017).
 A look at the density functional theory zoo with the advanced GMTKN55 database 
 for general main group thermochemistry, kinetics and noncovalent interactions.
 https://doi.org/10.1039/C7CP04913G

 O. Schuett, P. Messmer, J. Hutter, J. VandeVondele.
 Electronic Structure Calculations on Graphics Processing Units, 173-190 (2016).
 GPU-Accelerated Sparse Matrix-Matrix Multiplication for Linear Scaling Density 
 Functional Theory.
 https://doi.org/10.1002/9781118670712.ch8

 A. Heinecke, G. Henry, M. Hutchinson, H. Pabst.
 Proceedings of Intl. Supercomputing Conference, 981-991 (2016).
 LIBXSMM: Accelerating Small Matrix Multiplications by Runtime Code Generation.
 https://doi.org/10.1109/SC.2016.83

 J. Hutter, M. Iannuzzi, F. Schiffmann, J. VandeVondele.
 WIREs Comput Mol Sci. 4, 15-25 (2014).
 CP2K: atomistic simulations of condensed matter systems.
 https://doi.org/10.1002/wcms.1159

 U. Borstnik, J. VandeVondele, V. Weber, J. Hutter.
 Parallel Comput. 40, 47-58 (2014).
 Sparse matrix multiplication: The distributed block-compressed sparse row 
 library.
 https://doi.org/10.1016/j.parco.2014.03.012

 A. Marek, V. Blum, R. Johanni, V. Havu, B. Lang, T. Auckenthaler, A. Heinecke, 
 H. Bungartz, H. Lederer.
 J. Phys. Condens. Matter 26, 213201 (2014).
 The ELPA library: scalable parallel eigenvalue solutions for electronic 
 structure theory and computational science.
 https://doi.org/10.1088/0953-8984/26/21/213201

 S. Grimme, S. Ehrlich, L. Goerigk.
 J. Comput. Chem. 32, 1456 (2011).
 Effect of the damping function in dispersion corrected density functional 
 theory.
 https://doi.org/10.1002/jcc.21759

 S. Grimme, J. Antony, S. Ehrlich, H. Krieg.
 J. Chem. Phys. 132, 154104 (2010).
 A consistent and accurate ab initio parametrization of density functional 
 dispersion correction (DFT-D) for the 94 elements H-Pu.
 https://doi.org/10.1063/1.3382344

 J. VandeVondele, J. Hutter.
 J. Chem. Phys. 127, 114105 (2007).
 Gaussian basis sets for accurate calculations on molecular systems in gas and 
 condensed phases.
 https://doi.org/10.1063/1.2770708

 T. D. Kühne, M. Krack, F. R. Mohamed, M. Parrinello.
 Phys. Rev. Lett. 98, 066401 (2007).
 Efficient and accurate Car-Parrinello-like approach to Born-Oppenheimer 
 molecular dynamics.
 https://doi.org/10.1103/PhysRevLett.98.066401

 J. VandeVondele, M. Krack, F. Mohamed, M. Parrinello, T. Chassaing, J. Hutter.
 Comput. Phys. Commun. 167, 103-128 (2005).
 QUICKSTEP: Fast and accurate density functional calculations using a mixed 
 Gaussian and plane waves approach.
 https://doi.org/10.1016/j.cpc.2004.12.014

 M. Krack.
 Theor. Chem. Acc. 114, 145-152 (2005).
 Pseudopotentials for H to Kr optimized for gradient-corrected 
 exchange-correlation functionals.
 https://doi.org/10.1007/s00214-005-0655-y

 M. Frigo, S. G. Johnson.
 Proc. IEEE 93, 216-231 (2005).
 The design and implementation of FFTW3.
 https://doi.org/10.1109/JPROC.2004.840301

 J. Kolafa.
 J. Comput. Chem. 25, 335-342 (2004).
 Time-reversible always stable predictor-corrector method for molecular dynamics 
 of polarizable molecules.
 https://doi.org/10.1002/jcc.10385

 G. J. Martyna, M. E. Tuckerman.
 J. Chem. Phys. 110, 2810-2821 (1999).
 A reciprocal space based method for treating long range interactions in ab 
 initio and force-field-based calculations in clusters.
 https://doi.org/10.1063/1.477923

 C. Hartwigsen, S. Goedecker, J. Hutter.
 Phys. Rev. B 58, 3641-3662 (1998).
 Relativistic separable dual-space Gaussian pseudopotentials from H to Rn.
 https://doi.org/10.1103/PhysRevB.58.3641

 G. Lippert, J. Hutter, M. Parrinello.
 Mol. Phys. 92, 477-487 (1997).
 A hybrid Gaussian and plane wave density functional scheme.
 https://doi.org/10.1080/002689797170220

 S. Goedecker, M. Teter, J. Hutter.
 Phys. Rev. B 54, 1703-1710 (1996).
 Separable dual-space Gaussian pseudopotentials.
 https://doi.org/10.1103/PhysRevB.54.1703

 J. P. Perdew, K. Burke, M. Ernzerhof.
 Phys. Rev. Lett. 77, 3865-3868 (1996).
 Generalized gradient approximation made simple.
 https://doi.org/10.1103/PhysRevLett.77.3865


 -------------------------------------------------------------------------------
 -                                                                             -
 -                                T I M I N G                                  -
 -                                                                             -
 -------------------------------------------------------------------------------
 SUBROUTINE                       CALLS  ASD         SELF TIME        TOTAL TIME
                                MAXIMUM       AVERAGE  MAXIMUM  AVERAGE  MAXIMUM
 CP2K                                 1  1.0    0.017    0.022 3615.118 3615.241
 cp_geo_opt                           1  2.0    0.000    0.000 3614.580 3614.706
 geoopt_bfgs                          1  3.0    0.009    0.020 3614.580 3614.706
 cp_eval_at                         153  4.0    0.008    0.013 3609.844 3609.970
 qs_forces                          152  5.0    0.011    0.012 3599.381 3599.504
 qs_energies                        153  6.0    0.005    0.006 3420.249 3420.367
 scf_env_do_scf                     153  7.0    0.006    0.009 3331.676 3332.776
 scf_env_do_scf_inner_loop         2015  8.0    0.030    0.086 3331.658 3332.751
 rebuild_ks_matrix                 2167  9.8    0.003    0.003 2357.010 2363.317
 qs_ks_build_kohn_sham_matrix      2167 10.8    0.161    0.187 2357.007 2363.314
 qs_ks_update_qs_env               2015  9.0    0.007    0.008 2175.588 2181.624
 fft_wrap_pw1pw2                  38859 13.9    0.405    0.581 1683.590 1732.703
 fft_wrap_pw1pw2_200              25854 15.2   90.688   96.590 1633.160 1682.160
 qs_vxc_create                     2167 11.8    0.030    0.043 1340.407 1349.981
 xc_vxc_pw_create                  2167 12.8   13.570   17.517 1340.377 1349.952
 fft3d_ps                         38859 15.9  730.425  775.158 1198.879 1274.562
 xc_pw_derive                     13002 14.8    0.082    0.132  985.709 1018.268
 qs_rho_update_rho_low             2168  9.1    0.005    0.006  719.504  719.531
 calculate_rho_elec                2168 10.1    1.765    1.923  719.499  719.526
 sum_up_and_integrate              2167 11.8    0.015    0.021  686.490  693.466
 xc_rho_set_and_dset_create        2167 13.8   19.840   23.756  655.257  688.904
 integrate_v_rspace                2167 12.8    0.052    0.066  677.749  685.319
 xc_pw_divergence                  2167 13.8    0.039    0.062  654.694  682.159
 density_rs2pw                     2168 11.1    0.070    0.092  489.565  506.528
 gspace_mixing                     1862  9.0    1.571    1.664  436.538  436.553
 potential_pw2rs                   2167 13.8    0.205    0.271  377.396  378.828
 mp_alltoall_z22v                 38859 17.9  247.494  360.129  247.494  360.129
 broyden_mixing                    1862 10.0  303.896  316.335  315.826  322.442
 x_to_yz                          21366 17.1  139.018  168.494  273.289  312.012
 grid_collocate_task_list          2168 11.1  222.211  274.277  222.211  274.277
 grid_integrate_task_list          2167 13.8  224.201  268.484  224.201  268.484
 yz_to_x                          17493 16.8   81.400   85.580  194.623  261.668
 transfer_pw2rs                    8820 14.7    0.066    0.073  216.897  217.802
 pw_derive                        19503 15.1  184.635  211.482  184.635  211.482
 transfer_rs2pw                    8825 12.0    0.090    0.102  176.721  199.052
 qs_ks_update_qs_env_forces         152  6.0    0.000    0.000  182.076  182.679
 pw_scatter_p                     21366 16.1  168.181  175.773  168.181  175.773
 transfer_pw2rs_200                2319 15.5   90.386   96.490  168.599  175.642
 mp_waitany                       37120 15.2  125.651  171.890  125.651  171.890
 pw_poisson_solve                  2167 11.8    0.028    0.037  154.326  163.106
 transfer_rs2pw_200                2321 12.9   46.352   56.673  132.477  157.231
 pw_copy                          32505 14.3  134.824  142.084  134.824  142.084
 xc_functional_eval                2167 14.8    0.015    0.018  104.698  138.992
 pbe_lda_eval                      2167 15.8  104.683  138.976  104.683  138.976
 pw_gather_p                      17493 15.8  118.346  135.847  118.346  135.847
 pw_poisson_set                    2168 12.8    0.043    0.071  101.655  110.434
 mp_alltoall_d11v                 38159 13.3   76.897   96.829   76.897   96.829
 rs_gather_matrices                2167 13.8    0.141    0.169   76.038   96.054
 pw_axpy                          21674 13.2   75.290   79.441   75.290   79.441
 -------------------------------------------------------------------------------

 The number of warnings for this run is : 2319
 
 -------------------------------------------------------------------------------
  **** **** ******  **  PROGRAM ENDED AT                 2026-06-04 15:23:33.798
 ***** ** ***  *** **   PROGRAM RAN ON                                  simnode3
 **    ****   ******    PROGRAM RAN BY                                   liuming
 ***** **    ** ** **   PROGRAM PROCESS ID                                241776
  **** **  *******  **  PROGRAM STOPPED IN /mnt/ssd/home/liuming/cp2k/HBAB-TAPA-
                                           COF/HBAB-TAPA-COF-Cs
