 DBCSR| CPU Multiplication driver                                           XSMM (U)
 DBCSR| Multrec recursion limit                                              512 (U)
 DBCSR| Multiplication stack size                                           1000 (D)
 DBCSR| Maximum elements for images                                    UNLIMITED (U)
 DBCSR| Multiplicative factor virtual images                                   1 (U)
 DBCSR| Use multiplication densification                                       T (D)
 DBCSR| Multiplication size stacks                                             3 (U)
 DBCSR| Use memory pool for CPU allocation                                     F (U)
 DBCSR| OMP: Current number of threads                                        12
 DBCSR| OMP: Max number of threads                                            12
 DBCSR| Split modifier for TAS multiplication algorithm                  1.0E+00 (U)


  **** **** ******  **  PROGRAM STARTED AT               2026-10-06 16:28:36.186
 ***** ** ***  *** **   PROGRAM STARTED ON                              simnode7
 **    ****   ******    PROGRAM STARTED BY                               liuming
 ***** **    ** ** **   PROGRAM PROCESS ID                                189025
  **** **  *******  **  PROGRAM STARTED IN /mnt/ssd/home/liuming/PSSNa_add_EDD/C
                                           OF-opt/EDD/Cl/2-HBAB-TAPA-COF

 CP2K| version string:                                       CP2K version 2026.2
 CP2K| source code revision number:                                   67b5da876d
 CP2K| cp2kflags: omp libint fftw3 libxc libxs libxsmm spglib libdftd4 dftd4_v4_
 CP2K|            2 s_dftd3 mctc-lib tblite libvori libbqb libfci
 CP2K| is freely available from                            https://www.cp2k.org/
 CP2K| Program compiled at                                   2026-07-31 15:02:25
 CP2K| Program compiled on                                                PC9404
 CP2K| Program compiled for                                               x86_64
 CP2K| Data directory path             /mnt/ssd/home/xzhaoq/opt/cp2k-csnode/data
 CP2K| Input file name                                  HBAB-TAPA-COF-2layer.inp

 GLOBAL| Force Environment number                                              1
 GLOBAL| Basis set file name                                        BASIS_MOLOPT
 GLOBAL| Potential file name                                           POTENTIAL
 GLOBAL| MM Potential file name                                     MM_POTENTIAL
 GLOBAL| Coordinate file name                                      __STD_INPUT__
 GLOBAL| Method name                                                        CP2K
 GLOBAL| Project name                                    HBAB-TAPA-COF-2layer-Cl
 GLOBAL| Run type                                                         ENERGY
 GLOBAL| FFT library                                                       FFTW3
 GLOBAL| Diagonalization library                                       ScaLAPACK
 GLOBAL| Cholesky decomposition library                                ScaLAPACK
 GLOBAL| DGEMM library                                                      BLAS
 GLOBAL| Direct generalized diagonalization requested                          F
 GLOBAL| Orthonormality check for eigenvectors                          DISABLED
 GLOBAL| Matrix multiplication library                                 ScaLAPACK
 GLOBAL| All-to-all communication in single precision                          F
 GLOBAL| FFTs using library dependent lengths                                  F
 GLOBAL| Grid backend                                                       AUTO
 GLOBAL| Global print level                                                  LOW
 GLOBAL| MPI I/O enabled                                                       T
 GLOBAL| Total number of message passing processes                             1
 GLOBAL| Number of distributed systems (nodes)                                 1
 GLOBAL| Number of threads for this process                                   12
 GLOBAL| This output is from process                                           0
 GLOBAL| OpenMP stack size per thread (OMP_STACKSIZE)                        64M
 GLOBAL| CPU model name                     13th Gen Intel(R) Core(TM) i9-13900K
 GLOBAL| CPUID                                                              1002
 GLOBAL| Compiled for CPUID                                                 1001

 MEMORY| system memory details [Kb]
 MEMORY|                        rank 0           min           max       average
 MEMORY| MemTotal             65601780      65601780      65601780      65601780
 MEMORY| MemFree              16277944      16277944      16277944      16277944
 MEMORY| Buffers                195672        195672        195672        195672
 MEMORY| Cached               43707944      43707944      43707944      43707944
 MEMORY| Slab                   751532        751532        751532        751532
 MEMORY| SReclaimable           407896        407896        407896        407896
 MEMORY| MemLikelyFree        60589456      60589456      60589456      60589456


 GENERATE|  Preliminary Number of Bonds generated:                             0
 GENERATE|  Achieved consistency in connectivity generation.

 *******************************************************************************
 *******************************************************************************
 **                                                                           **
 **     #####                         ##              ##                      **
 **    ##   ##            ##          ##              ##                      **
 **   ##     ##                       ##            ######                    **
 **   ##     ##  ##   ##  ##   #####  ##  ##   ####   ##    #####    #####    **
 **   ##     ##  ##   ##  ##  ##      ## ##   ##      ##   ##   ##  ##   ##   **
 **   ##  ## ##  ##   ##  ##  ##      ####     ###    ##   ######   ######    **
 **    ##  ###   ##   ##  ##  ##      ## ##      ##   ##   ##       ##        **
 **     #######   #####   ##   #####  ##  ##  ####    ##    #####   ##        **
 **           ##                                                    ##        **
 **                                                                           **
 **                                                ... make the atoms dance   **
 **                                                                           **
 **            Copyright (C) by CP2K developers group (2000-2026)             **
 **                      J. Chem. Phys. 152, 194103 (2020)                    **
 **                                                                           **
 *******************************************************************************


 TOTAL NUMBERS AND MAXIMUM NUMBERS

  Total number of            - Atomic kinds:                                   4
                             - Atoms:                                        146
                             - Shell sets:                                   146
                             - Shells:                                       610
                             - Primitive Cartesian functions:                730
                             - Cartesian basis functions:                   1504
                             - Spherical basis functions:                   1418

  Maximum angular momentum of- Orbital basis functions:                        2
                             - Local part of the GTH pseudopotential:          2
                             - Non-local part of the GTH pseudopotential:      0


 SCF PARAMETERS         Density guess:                                    ATOMIC
                        --------------------------------------------------------
                        max_scf:                                             128
                        max_scf_history:                                       0
                        max_diis:                                              4
                        --------------------------------------------------------
                        eps_scf:                                        5.00E-06
                        eps_scf_history:                                0.00E+00
                        eps_diis:                                       1.00E-01
                        eps_eigval:                                     1.00E-05
                        --------------------------------------------------------
                        level_shift [a.u.]:                             0.000000
                        --------------------------------------------------------
                        Mixing method:                            BROYDEN_MIXING
                                                charge density mixing in g-space
                        --------------------------------------------------------
                        No outer SCF

 Extrapolation method: initial_guess

 Spin 1

 Number of electrons:                                                        210
 Number of occupied orbitals:                                                210
 Number of molecular orbitals:                                               210

 Spin 2

 Number of electrons:                                                        210
 Number of occupied orbitals:                                                210
 Number of molecular orbitals:                                               210

 Number of orbital functions:                                               1418
 Number of independent orbital functions:                                   1418


 SCF WAVEFUNCTION OPTIMIZATION

  Step     Update method      Time    Convergence         Total energy    Change
  ------------------------------------------------------------------------------
     1 NoMix/Diag. 0.40E+00    8.4     0.47870972      -593.4775189871 -5.93E+02
     2 Broy./Diag. 0.40E+00   11.1     0.24820837      -574.8946008420  1.86E+01
     3 Broy./Diag. 0.40E+00   11.5     0.04709398      -597.4896745235 -2.26E+01
     4 Broy./Diag. 0.40E+00   11.7     0.02743264      -602.8284314789 -5.34E+00
     5 Broy./Diag. 0.40E+00   11.9     0.00980138      -605.2881452039 -2.46E+00
     6 Broy./Diag. 0.40E+00   12.3     0.00355272      -604.5240015991  7.64E-01
     7 Broy./Diag. 0.40E+00   12.6     0.00262854      -604.2462997773  2.78E-01
     8 Broy./Diag. 0.40E+00   13.0     0.00417183      -604.3289749156 -8.27E-02
     9 Broy./Diag. 0.40E+00   13.5     0.00140794      -604.5450894023 -2.16E-01
    10 Broy./Diag. 0.40E+00   14.0     0.00063848      -604.6425012513 -9.74E-02
    11 Broy./Diag. 0.40E+00   14.0     0.00055045      -604.6549656669 -1.25E-02
    12 Broy./Diag. 0.40E+00   14.0     0.00033768      -604.6411661219  1.38E-02
    13 Broy./Diag. 0.40E+00   14.0     0.00024045      -604.6367275526  4.44E-03
    14 Broy./Diag. 0.40E+00   14.0     0.00025122      -604.6497551900 -1.30E-02
    15 Broy./Diag. 0.40E+00   14.0     0.00015245      -604.6669923129 -1.72E-02
    16 Broy./Diag. 0.40E+00   14.0     0.00008865      -604.6746031222 -7.61E-03
    17 Broy./Diag. 0.40E+00   14.0     0.00005127      -604.6756299470 -1.03E-03
    18 Broy./Diag. 0.40E+00   14.0     0.00003953      -604.6738868270  1.74E-03
    19 Broy./Diag. 0.40E+00   13.7     0.00002400      -604.6745946748 -7.08E-04
    20 Broy./Diag. 0.40E+00   14.7     0.00002590      -604.6765097687 -1.92E-03
    21 Broy./Diag. 0.40E+00   16.1     0.00001669      -604.6781259227 -1.62E-03
    22 Broy./Diag. 0.40E+00   16.3     0.00001255      -604.6787810722 -6.55E-04
    23 Broy./Diag. 0.40E+00   16.0     0.00000939      -604.6789934298 -2.12E-04
    24 Broy./Diag. 0.40E+00   15.0     0.00000602      -604.6791839578 -1.91E-04
    25 Broy./Diag. 0.40E+00   13.7     0.00000358      -604.6793041276 -1.20E-04

  *** SCF run converged in    25 steps ***


  Electronic density on regular grids:       -419.9999999979        0.0000000021
  Core density on regular grids:              421.9999999967       -0.0000000033
  Total charge density on r-space grids:        1.9999999988
  Total charge density g-space grids:           1.9999999988

  Overlap energy of the core charge distribution:               0.00003269227569
  Self energy of the core charge distribution:              -1449.04007032016170
  Core Hamiltonian energy:                                    448.38293749121817
  Hartree energy:                                             581.83175982487285
  Exchange-correlation energy:                               -185.55768978799097
  Dispersion energy:                                           -0.29627402784796

  Total energy:                                              -604.67930412763394

  Integrated spin density:                                          0.0000000000
  Integrated absolute spin density:                                 0.0000000000
  Ideal and single determinant S**2 :                    0.000000       0.000000

 The sum of alpha and beta density is written in Cube    file format to the file:

 HBAB-TAPA-COF-2layer-Cl-ELECTRON_DENSITY-1_0.cube

 The spin density is written in Cube    file format to the file:

 HBAB-TAPA-COF-2layer-Cl-SPIN_DENSITY-1_0.cube

 ENERGY| Total FORCE_EVAL ( QS ) energy [hartree]           -604.679304127633941

 -------------------------------------------------------------------------------
 -                                                                             -
 -                                DBCSR STATISTICS                             -
 -                                                                             -
 -------------------------------------------------------------------------------
 COUNTER                                    TOTAL       BLAS       SMM       ACC
 flops     5 x    18 x     5              3240000       0.0%    100.0%      0.0%     
 flops     5 x    18 x    13             12060360       0.0%    100.0%      0.0%     
 flops    13 x    18 x     5             12060360       0.0%    100.0%      0.0%     
 flops     5 x    32 x     5             34560000       0.0%    100.0%      0.0%     
 flops    13 x    18 x    13             44839080       0.0%    100.0%      0.0%     
 flops    13 x    32 x     5            128643840       0.0%    100.0%      0.0%     
 flops     5 x    32 x    13            128643840       0.0%    100.0%      0.0%     
 flops    13 x    32 x    13            478283520       0.0%    100.0%      0.0%     
 flops     5 x     5 x   210            960750000       0.0%    100.0%      0.0%     
 flops     5 x    13 x   210           3516240000       0.0%    100.0%      0.0%     
 flops    13 x     5 x   210           3518970000       0.0%    100.0%      0.0%     
 flops    13 x    13 x   210          13230672000       0.0%    100.0%      0.0%     
 flops inhomo. stacks                           0       0.0%      0.0%      0.0%
 flops total                        22.068963E+09       0.0%    100.0%      0.0%
 flops max/rank                     22.068963E+09       0.0%    100.0%      0.0%
 matmuls inhomo. stacks                         0       0.0%      0.0%      0.0%
 matmuls total                             684546       0.0%    100.0%      0.0%
 number of processed stacks                  2605       0.0%    100.0%      0.0%
 average stack size                                     0.0     262.8       0.0
 marketing flops                    43.069739E+09
 -------------------------------------------------------------------------------
 # multiplications                             51
 max memory usage/rank              20.045537E+09
 # max total images/rank                        1
 # max 3D layers                                1
 # MPI messages exchanged                       0
 -------------------------------------------------------------------------------

 -------------------------------------------------------------------------------
 -                                                                             -
 -                                GRID STATISTICS                              -
 -                                                                             -
 -------------------------------------------------------------------------------
 LP    KERNEL             BACKEND                              COUNT     PERCENT
 3     collocate general  CPU                                2287116      23.44%
 3     integrate general  CPU                                2199150      22.54%
 4     collocate general  CPU                                1781000      18.26%
 4     integrate general  CPU                                1712500      17.55%
 2     collocate general  CPU                                 905112       9.28%
 2     integrate general  CPU                                 870300       8.92%
 0     collocate general  CPU                                    146       0.00%
 -------------------------------------------------------------------------------

 -------------------------------------------------------------------------------
 -                                                                             -
 -                          OFFLOAD MEMPOOL STATISTICS                         -
 -                                                                             -
 -------------------------------------------------------------------------------
 Memory consumption                Number of allocations  Used [MiB]  Size [MiB]
 Host                                                  6         128         204
 -------------------------------------------------------------------------------

 MEMORY| Estimated peak process memory [MiB]                               15163

 -------------------------------------------------------------------------------
 -                                                                             -
 -                           R E F E R E N C E S                               -
 -                                                                             -
 -------------------------------------------------------------------------------
 
 CP2K version 2026.2, the CP2K developers group (2026).
 CP2K is freely available from https://www.cp2k.org/ .
 
 M. Iannuzzi, J. Wilhelm, F. Stein, A. Bussy, H. Elgabarty, D. Golze, A. Hehn, 
 M. Graml, S. Marek, B. Sertcan Gökmen, C. Schran, H. Forbert, R. Z. 
 Khaliullin, A. Kozhevnikov, M. Taillefumier, R. Meli, V. V. Rybkin, M. Brehm, 
 R. Schade, O. Schütt, J. V. Pototschnig, H. Mirhosseini, A. Knüpfer, D. Marx, 
 M. Krack, J. Hutter, T. D. Kühne.
 J. Phys. Chem. B 130, 1237-1310 (2026).
 The CP2K Program Package Made Simple.
 https://doi.org/10.1021/acs.jpcb.5c05851

 L. Wittmann, I. Gordiy, M. Friede, B. Helmich-Paris, S. Grimme, A. Hansen, M. 
 Bursch.
 Phys. Chem. Chem. Phys. 26, 21379-21394 (2024).
 Extension of the D3 and D4 London dispersion corrections to the full actinides 
 series.
 https://doi.org/10.1039/d4cp01514b

 T. D. Kühne, M. Iannuzzi, M. Del Ben, V. V. Rybkin, P. Seewald, F. Stein, T. 
 Laino, R. Z. Khaliullin, O. Schütt, F. Schiffmann, D. Golze, J. Wilhelm, S. 
 Chulkov, M. H. Bani-Hashemian, V. Weber, U. Borstnik, M. Taillefumier, A. S. 
 Jakobovits, A. Lazzaro, H. Pabst, T. Müller, R. Schade, M. Guidon, S. 
 Andermatt, N. Holmberg, G. K. Schenter, A. Hehn, A. Bussy, F. Belleflamme, G. 
 Tabacchi, A. Glöß, M. Lass, I. Bethune, C. J. Mundy, C. Plessl, M. Watkins, 
 J. VandeVondele, M. Krack, J. Hutter.
 J. Chem. Phys. 152, 194103 (2020).
 CP2K: An electronic structure and molecular dynamics software package - 
 Quickstep: Efficient and accurate electronic structure calculations.
 https://doi.org/10.1063/5.0007045

 L. Goerigk, A. Hansen, C. Bauer, S. Ehrlich, A. Najibi, S. Grimme.
 Phys. Chem. Chem. Phys. 19, 32184-32215 (2017).
 A look at the density functional theory zoo with the advanced GMTKN55 database 
 for general main group thermochemistry, kinetics and noncovalent interactions.
 https://doi.org/10.1039/C7CP04913G

 O. Schuett, P. Messmer, J. Hutter, J. VandeVondele.
 Electronic Structure Calculations on Graphics Processing Units, 173-190 (2016).
 GPU-Accelerated Sparse Matrix-Matrix Multiplication for Linear Scaling Density 
 Functional Theory.
 https://doi.org/10.1002/9781118670712.ch8

 A. Heinecke, G. Henry, M. Hutchinson, H. Pabst.
 Proceedings of Intl. Supercomputing Conference, 981-991 (2016).
 LIBXSMM: Accelerating Small Matrix Multiplications by Runtime Code Generation.
 https://doi.org/10.1109/SC.2016.83

 U. Borstnik, J. VandeVondele, V. Weber, J. Hutter.
 Parallel Comput. 40, 47-58 (2014).
 Sparse matrix multiplication: The distributed block-compressed sparse row 
 library.
 https://doi.org/10.1016/j.parco.2014.03.012

 S. Grimme, S. Ehrlich, L. Goerigk.
 J. Comput. Chem. 32, 1456 (2011).
 Effect of the damping function in dispersion corrected density functional 
 theory.
 https://doi.org/10.1002/jcc.21759

 S. Grimme, J. Antony, S. Ehrlich, H. Krieg.
 J. Chem. Phys. 132, 154104 (2010).
 A consistent and accurate ab initio parametrization of density functional 
 dispersion correction (DFT-D) for the 94 elements H-Pu.
 https://doi.org/10.1063/1.3382344

 J. VandeVondele, J. Hutter.
 J. Chem. Phys. 127, 114105 (2007).
 Gaussian basis sets for accurate calculations on molecular systems in gas and 
 condensed phases.
 https://doi.org/10.1063/1.2770708

 J. VandeVondele, M. Krack, F. Mohamed, M. Parrinello, T. Chassaing, J. Hutter.
 Comput. Phys. Commun. 167, 103-128 (2005).
 QUICKSTEP: Fast and accurate density functional calculations using a mixed 
 Gaussian and plane waves approach.
 https://doi.org/10.1016/j.cpc.2004.12.014

 M. Krack.
 Theor. Chem. Acc. 114, 145-152 (2005).
 Pseudopotentials for H to Kr optimized for gradient-corrected 
 exchange-correlation functionals.
 https://doi.org/10.1007/s00214-005-0655-y

 M. Frigo, S. G. Johnson.
 Proc. IEEE 93, 216-231 (2005).
 The design and implementation of FFTW3.
 https://doi.org/10.1109/JPROC.2004.840301

 G. J. Martyna, M. E. Tuckerman.
 J. Chem. Phys. 110, 2810-2821 (1999).
 A reciprocal space based method for treating long range interactions in ab 
 initio and force-field-based calculations in clusters.
 https://doi.org/10.1063/1.477923

 C. Hartwigsen, S. Goedecker, J. Hutter.
 Phys. Rev. B 58, 3641-3662 (1998).
 Relativistic separable dual-space Gaussian pseudopotentials from H to Rn.
 https://doi.org/10.1103/PhysRevB.58.3641

 G. Lippert, J. Hutter, M. Parrinello.
 Mol. Phys. 92, 477-487 (1997).
 A hybrid Gaussian and plane wave density functional scheme.
 https://doi.org/10.1080/002689797170220

 S. Goedecker, M. Teter, J. Hutter.
 Phys. Rev. B 54, 1703-1710 (1996).
 Separable dual-space Gaussian pseudopotentials.
 https://doi.org/10.1103/PhysRevB.54.1703

 J. P. Perdew, K. Burke, M. Ernzerhof.
 Phys. Rev. Lett. 77, 3865-3868 (1996).
 Generalized gradient approximation made simple.
 https://doi.org/10.1103/PhysRevLett.77.3865

 C. G. Broyden.
 Math. Comput. 19, 577-593 (1965).
 A class of methods for solving nonlinear simultaneous equations.
 https://doi.org/10.1090/S0025-5718-1965-0198670-6


 -------------------------------------------------------------------------------
 -                                                                             -
 -                                T I M I N G                                  -
 -                                                                             -
 -------------------------------------------------------------------------------
 SUBROUTINE                       CALLS  ASD         SELF TIME        TOTAL TIME
                                MAXIMUM       AVERAGE  MAXIMUM  AVERAGE  MAXIMUM
 CP2K                                 1  1.0    0.247    0.247  363.007  363.007
 qs_energies                          1  2.0    0.000    0.000  353.510  353.510
 scf_env_do_scf                       1  3.0    0.000    0.000  340.280  340.280
 scf_env_do_scf_inner_loop           25  4.0    0.002    0.002  340.280  340.280
 qs_ks_update_qs_env                 25  5.0    0.000    0.000  155.301  155.301
 rebuild_ks_matrix                   25  6.0    0.000    0.000  155.087  155.087
 qs_ks_build_kohn_sham_matrix        25  7.0    0.003    0.003  155.087  155.087
 fft_wrap_pw1pw2                    884 10.1    0.016    0.016  124.056  124.056
 fft_wrap_pw1pw2_180                578 11.4   21.661   21.661  120.254  120.254
 qs_vxc_create                       25  8.0    0.001    0.001  102.586  102.586
 xc_vxc_pw_create                    25  9.0    2.936    2.936  102.585  102.585
 gspace_mixing                       24  5.0    1.619    1.619   80.596   80.596
 xc_pw_derive                       300 11.0    0.003    0.003   70.810   70.810
 broyden_mixing                      24  6.0   67.761   67.761   67.761   67.761
 qs_rho_update_rho_low               26  5.0    0.000    0.000   59.172   59.172
 calculate_rho_elec                  52  6.0    1.779    1.779   59.172   59.172
 fft3d_s                            885 12.1   57.837   57.837   57.843   57.843
 xc_pw_divergence                    50 10.0    0.002    0.002   49.320   49.320
 xc_rho_set_and_dset_create          25 10.0    6.787    6.787   48.573   48.573
 qs_scf_new_mos                      25  5.0    0.001    0.001   47.206   47.206
 eigensolver                         50  6.0    0.005    0.005   44.442   44.442
 sum_up_and_integrate                25  8.0    0.001    0.001   40.746   40.746
 integrate_v_rspace                  50  9.0    0.034    0.034   40.249   40.249
 cp_fm_syevd                         50  7.0   32.633   32.633   32.798   32.798
 grid_collocate_task_list            52  7.0   30.964   30.964   30.964   30.964
 pw_scatter_s                       475 12.3   29.721   29.721   29.721   29.721
 density_rs2pw                       52  7.0    0.002    0.002   26.429   26.429
 grid_integrate_task_list            50 10.0   25.036   25.036   25.036   25.036
 potential_pw2rs                     50 10.0    0.112    0.112   15.179   15.179
 cp_fm_cholesky_restore             150  7.0   11.534   11.534   11.534   11.534
 pw_gather_s                        409 11.8    9.079    9.079    9.079    9.079
 qs_init_subsys                       1  2.0    0.001    0.001    8.909    8.909
 qs_env_setup                         1  3.0    0.000    0.000    8.869    8.869
 qs_env_rebuild_pw_env                2  3.5    0.000    0.000    8.869    8.869
 pw_env_rebuild                       1  5.0    0.000    0.000    8.869    8.869
 pw_grid_setup                        5  6.0    0.000    0.000    8.865    8.865
 pw_grid_setup_internal               5  7.0    0.175    0.175    8.865    8.865
 pw_derive                          375 11.6    7.828    7.828    7.828    7.828
 pw_grid_sort                         5  8.0    5.812    5.812    7.718    7.718
 scf_post_calculation_gpw             1  3.0    0.000    0.000    7.699    7.699
 write_available_results              1  4.0    0.000    0.000    7.699    7.699
 xc_functional_eval                  25 11.0    0.000    0.000    7.589    7.589
 pbe_lsd_eval                        25 12.0    7.589    7.589    7.589    7.589
 write_mo_free_results                1  5.0    1.289    1.289    7.529    7.529
 -------------------------------------------------------------------------------

 The number of warnings for this run is : 0
 
 -------------------------------------------------------------------------------
  **** **** ******  **  PROGRAM ENDED AT                 2026-10-06 16:34:39.358
 ***** ** ***  *** **   PROGRAM RAN ON                                  simnode7
 **    ****   ******    PROGRAM RAN BY                                   liuming
 ***** **    ** ** **   PROGRAM PROCESS ID                                189025
  **** **  *******  **  PROGRAM STOPPED IN /mnt/ssd/home/liuming/PSSNa_add_EDD/C
                                           OF-opt/EDD/Cl/2-HBAB-TAPA-COF
