SIRIUS 7.7.0, git hash: https://api.github.com/repos/electronic-structure/SIRIUS/git/ref/tags/v7.7.0
 DBCSR| CPU Multiplication driver                                           BLAS (U)
 DBCSR| Multrec recursion limit                                              512 (U)
 DBCSR| Multiplication stack size                                           1000 (D)
 DBCSR| Maximum elements for images                                    UNLIMITED (U)
 DBCSR| Multiplicative factor virtual images                                   1 (U)
 DBCSR| Use multiplication densification                                       T (D)
 DBCSR| Multiplication size stacks                                             3 (U)
 DBCSR| Use memory pool for CPU allocation                                     F (U)
 DBCSR| Number of 3D layers                                               SINGLE (U)
 DBCSR| Use MPI memory allocation                                              F (U)
 DBCSR| Use RMA algorithm                                                      F (U)
 DBCSR| Use Communication thread                                               T (U)
 DBCSR| Communication thread load                                             87 (D)
 DBCSR| MPI: My process id                                                     0
 DBCSR| MPI: Number of processes                                              16
 DBCSR| OMP: Current number of threads                                         1
 DBCSR| OMP: Max number of threads                                             1
 DBCSR| Split modifier for TAS multiplication algorithm                  1.0E+00 (U)


  **** **** ******  **  PROGRAM STARTED AT               2026-06-04 19:47:23.997
 ***** ** ***  *** **   PROGRAM STARTED ON                              simnode3
 **    ****   ******    PROGRAM STARTED BY                               liuming
 ***** **    ** ** **   PROGRAM PROCESS ID                                252296
  **** **  *******  **  PROGRAM STARTED IN /mnt/ssd/home/liuming/cp2k/HBAB-TAPA-
                                           COF/HBAB-TAPA-COF-Cs/2_energy/HBAB-TA
                                           PA-COF

 CP2K| version string:                                       CP2K version 2025.2
 CP2K| source code revision number:                                  git:3158929
 CP2K| cp2kflags: omp libint fftw3 libxc libgrpp elpa parallel scalapack mpi_f08
 CP2K|             cosma xsmm spglib libdftd4 mctc-lib tblite sirius libvori lib
 CP2K|            bbqb libvdwxc hdf5
 CP2K| is freely available from                            https://www.cp2k.org/
 CP2K| Program compiled at                       Fri Nov 21 04:12:42 PM CST 2025
 CP2K| Program compiled on                                              simnode3
 CP2K| Program compiled for                                                local
 CP2K| Data directory path                     /nfs/share/repos/cp2k-2025.2/data
 CP2K| Input file name                                         HBAB-TAPA-COF.inp

 GLOBAL| Force Environment number                                              1
 GLOBAL| Basis set file name                                        BASIS_MOLOPT
 GLOBAL| Potential file name                                           POTENTIAL
 GLOBAL| MM Potential file name                                     MM_POTENTIAL
 GLOBAL| Coordinate file name                                      __STD_INPUT__
 GLOBAL| Method name                                                        CP2K
 GLOBAL| Project name                                              HBAB-TAPA-COF
 GLOBAL| Run type                                                         ENERGY
 GLOBAL| FFT library                                                       FFTW3
 GLOBAL| Diagonalization library                                            ELPA
 GLOBAL| Cholesky decomposition library                                ScaLAPACK
 GLOBAL| DGEMM library                                                      BLAS
 GLOBAL| Minimum number of eigenvectors for ELPA usage                        16
 GLOBAL| Orthonormality check for eigenvectors                          DISABLED
 GLOBAL| Matrix multiplication library                                     COSMA
 GLOBAL| All-to-all communication in single precision                          F
 GLOBAL| FFTs using library dependent lengths                                  F
 GLOBAL| Grid backend                                                       AUTO
 GLOBAL| Global print level                                                  LOW
 GLOBAL| MPI I/O enabled                                                       T
 GLOBAL| Total number of message passing processes                            16
 GLOBAL| Number of threads for this process                                    1
 GLOBAL| This output is from process                                           0
 GLOBAL| OpenMP stack size per thread (OMP_STACKSIZE)                    default
 GLOBAL| CPU model name                      AMD Ryzen 9 9950X 16-Core Processor
 GLOBAL| CPUID                                                              1003

 MEMORY| system memory details [Kb]
 MEMORY|                        rank 0           min           max       average
 MEMORY| MemTotal             96436364      96436364      96436364      96436364
 MEMORY| MemFree              70357708      70357708      70357708      70357708
 MEMORY| Buffers                150624        150624        150624        150624
 MEMORY| Cached               21771800      21771800      21771800      21771800
 MEMORY| Slab                   475040        475040        475040        475040
 MEMORY| SReclaimable           154828        154828        154828        154828
 MEMORY| MemLikelyFree        92434960      92434960      92434960      92434960


 GENERATE|  Preliminary Number of Bonds generated:                             0
 GENERATE|  Achieved consistency in connectivity generation.

 *******************************************************************************
 *******************************************************************************
 **                                                                           **
 **     #####                         ##              ##                      **
 **    ##   ##            ##          ##              ##                      **
 **   ##     ##                       ##            ######                    **
 **   ##     ##  ##   ##  ##   #####  ##  ##   ####   ##    #####    #####    **
 **   ##     ##  ##   ##  ##  ##      ## ##   ##      ##   ##   ##  ##   ##   **
 **   ##  ## ##  ##   ##  ##  ##      ####     ###    ##   ######   ######    **
 **    ##  ###   ##   ##  ##  ##      ## ##      ##   ##   ##       ##        **
 **     #######   #####   ##   #####  ##  ##  ####    ##    #####   ##        **
 **           ##                                                    ##        **
 **                                                                           **
 **                                                ... make the atoms dance   **
 **                                                                           **
 **            Copyright (C) by CP2K developers group (2000-2025)             **
 **                      J. Chem. Phys. 152, 194103 (2020)                    **
 **                                                                           **
 *******************************************************************************


 TOTAL NUMBERS AND MAXIMUM NUMBERS

  Total number of            - Atomic kinds:                                   4
                             - Atoms:                                         73
                             - Shell sets:                                    73
                             - Shells:                                       305
                             - Primitive Cartesian functions:                365
                             - Cartesian basis functions:                    752
                             - Spherical basis functions:                    709

  Maximum angular momentum of- Orbital basis functions:                        2
                             - Local part of the GTH pseudopotential:          2
                             - Non-local part of the GTH pseudopotential:      0


 SCF PARAMETERS         Density guess:                                    ATOMIC
                        --------------------------------------------------------
                        max_scf:                                             128
                        max_scf_history:                                       0
                        max_diis:                                              4
                        --------------------------------------------------------
                        eps_scf:                                        5.00E-06
                        eps_scf_history:                                0.00E+00
                        eps_diis:                                       1.00E-01
                        eps_eigval:                                     1.00E-05
                        --------------------------------------------------------
                        level_shift [a.u.]:                             0.000000
                        added MOs                                        37    0
                        --------------------------------------------------------
                        Mixing method:                            BROYDEN_MIXING
                                                charge density mixing in g-space
                        --------------------------------------------------------
                        Smear method:                                FERMI_DIRAC
                        Electronic temperature [K]:                        300.0
                        Electronic temperature [a.u.]:                  9.50E-04
                        Accuracy threshold:                             1.00E-10
                        --------------------------------------------------------
                        No outer SCF

 Number of electrons:                                                        210
 Number of occupied orbitals:                                                105
 Number of molecular orbitals:                                               142

 Number of orbital functions:                                                709
 Number of independent orbital functions:                                    709

 Extrapolation method: initial_guess


 SCF WAVEFUNCTION OPTIMIZATION

  Step     Update method      Time    Convergence         Total energy    Change
  ------------------------------------------------------------------------------

 *** WARNING in fm/cp_fm_elpa.F:521 :: Setting real_kernel for ELPA failed ***

     1 NoMix/Diag. 0.40E+00    1.0     0.95496227      -296.5183235668 -2.97E+02

 *** WARNING in fm/cp_fm_elpa.F:521 :: Setting real_kernel for ELPA failed ***

     2 Broy./Diag. 0.40E+00    1.3     0.51107608      -288.1388284170  8.38E+00

 *** WARNING in fm/cp_fm_elpa.F:521 :: Setting real_kernel for ELPA failed ***

     3 Broy./Diag. 0.40E+00    1.3     0.10450504      -299.1368951790 -1.10E+01

 *** WARNING in fm/cp_fm_elpa.F:521 :: Setting real_kernel for ELPA failed ***

     4 Broy./Diag. 0.40E+00    1.3     0.05558407      -301.5616302982 -2.42E+00

 *** WARNING in fm/cp_fm_elpa.F:521 :: Setting real_kernel for ELPA failed ***

     5 Broy./Diag. 0.40E+00    1.3     0.01869591      -302.7702188043 -1.21E+00

 *** WARNING in fm/cp_fm_elpa.F:521 :: Setting real_kernel for ELPA failed ***

     6 Broy./Diag. 0.40E+00    1.4     0.00670111      -302.3879378002  3.82E-01

 *** WARNING in fm/cp_fm_elpa.F:521 :: Setting real_kernel for ELPA failed ***

     7 Broy./Diag. 0.40E+00    1.4     0.00360105      -302.2393369221  1.49E-01

 *** WARNING in fm/cp_fm_elpa.F:521 :: Setting real_kernel for ELPA failed ***

     8 Broy./Diag. 0.40E+00    1.4     0.00557058      -302.2634282083 -2.41E-02

 *** WARNING in fm/cp_fm_elpa.F:521 :: Setting real_kernel for ELPA failed ***

     9 Broy./Diag. 0.40E+00    1.5     0.00218057      -302.3506095939 -8.72E-02

 *** WARNING in fm/cp_fm_elpa.F:521 :: Setting real_kernel for ELPA failed ***

    10 Broy./Diag. 0.40E+00    1.5     0.00100688      -302.3897804007 -3.92E-02

 *** WARNING in fm/cp_fm_elpa.F:521 :: Setting real_kernel for ELPA failed ***

    11 Broy./Diag. 0.40E+00    1.5     0.00053919      -302.3873712762  2.41E-03

 *** WARNING in fm/cp_fm_elpa.F:521 :: Setting real_kernel for ELPA failed ***

    12 Broy./Diag. 0.40E+00    1.5     0.00052938      -302.3738761843  1.35E-02

 *** WARNING in fm/cp_fm_elpa.F:521 :: Setting real_kernel for ELPA failed ***

    13 Broy./Diag. 0.40E+00    1.5     0.00032409      -302.3695744124  4.30E-03

 *** WARNING in fm/cp_fm_elpa.F:521 :: Setting real_kernel for ELPA failed ***

    14 Broy./Diag. 0.40E+00    1.5     0.00014699      -302.3711100410 -1.54E-03

 *** WARNING in fm/cp_fm_elpa.F:521 :: Setting real_kernel for ELPA failed ***

    15 Broy./Diag. 0.40E+00    1.5     0.00011449      -302.3734567854 -2.35E-03

 *** WARNING in fm/cp_fm_elpa.F:521 :: Setting real_kernel for ELPA failed ***

    16 Broy./Diag. 0.40E+00    1.5     0.00003588      -302.3738464607 -3.90E-04

 *** WARNING in fm/cp_fm_elpa.F:521 :: Setting real_kernel for ELPA failed ***

    17 Broy./Diag. 0.40E+00    1.5     0.00004983      -302.3729437519  9.03E-04

 *** WARNING in fm/cp_fm_elpa.F:521 :: Setting real_kernel for ELPA failed ***

    18 Broy./Diag. 0.40E+00    1.5     0.00002325      -302.3716926416  1.25E-03

 *** WARNING in fm/cp_fm_elpa.F:521 :: Setting real_kernel for ELPA failed ***

    19 Broy./Diag. 0.40E+00    1.5     0.00002132      -302.3710764546  6.16E-04

 *** WARNING in fm/cp_fm_elpa.F:521 :: Setting real_kernel for ELPA failed ***

    20 Broy./Diag. 0.40E+00    1.5     0.00000860      -302.3709827439  9.37E-05

 *** WARNING in fm/cp_fm_elpa.F:521 :: Setting real_kernel for ELPA failed ***

    21 Broy./Diag. 0.40E+00    1.5     0.00000656      -302.3709921442 -9.40E-06

 *** WARNING in fm/cp_fm_elpa.F:521 :: Setting real_kernel for ELPA failed ***

    22 Broy./Diag. 0.40E+00    1.5     0.00000644      -302.3709841554  7.99E-06

 *** WARNING in fm/cp_fm_elpa.F:521 :: Setting real_kernel for ELPA failed ***

    23 Broy./Diag. 0.40E+00    1.5     0.00000387      -302.3709786585  5.50E-06

  *** SCF run converged in    23 steps ***


  Electronic density on regular grids:       -209.9999999978        0.0000000022
  Core density on regular grids:              210.9999999983       -0.0000000017
  Total charge density on r-space grids:        1.0000000006
  Total charge density g-space grids:           1.0000000006

  Overlap energy of the core charge distribution:               0.00001410537560
  Self energy of the core charge distribution:               -724.52003516008085
  Core Hamiltonian energy:                                    223.05919925971790
  Hartree energy:                                             291.65388047019326
  Exchange-correlation energy:                                -92.44946858776964
  Dispersion energy:                                           -0.11456874598025
  Electronic entropic energy:                                  -0.00000000000000
  Fermi energy:                                                -0.20740251551811

  Total energy:                                              -302.37097865854400

 The electron density is written in cube file format to the file:

 HBAB-TAPA-COF-ELECTRON_DENSITY-1_0.cube

 ENERGY| Total FORCE_EVAL ( QS ) energy [hartree]           -302.370978658544004

 -------------------------------------------------------------------------------
 -                                                                             -
 -                                DBCSR STATISTICS                             -
 -                                                                             -
 -------------------------------------------------------------------------------
 COUNTER                                    TOTAL       BLAS       SMM       ACC
 flops     5 x     5 x    46             24598500     100.0%      0.0%      0.0%     
 flops     5 x     5 x    32             51336000     100.0%      0.0%      0.0%     
 flops     5 x    13 x    46             88713300     100.0%      0.0%      0.0%     
 flops    13 x     5 x    46             88713300     100.0%      0.0%      0.0%     
 flops     5 x    13 x    32            185140800     100.0%      0.0%      0.0%     
 flops    13 x     5 x    32            185140800     100.0%      0.0%      0.0%     
 flops    13 x    13 x    46            337935780     100.0%      0.0%      0.0%     
 flops    13 x    13 x    32            705257280     100.0%      0.0%      0.0%     
 flops inhomo. stacks                           0       0.0%      0.0%      0.0%
 flops total                         1.666836E+09     100.0%      0.0%      0.0%
 flops max/rank                    110.122988E+06     100.0%      0.0%      0.0%
 matmuls inhomo. stacks                         0       0.0%      0.0%      0.0%
 matmuls total                             248400     100.0%      0.0%      0.0%
 number of processed stacks                  5888     100.0%      0.0%      0.0%
 average stack size                                    42.2       0.0       0.0
 marketing flops                     2.427950E+09
 -------------------------------------------------------------------------------
 # multiplications                             23
 max memory usage/rank              23.043617E+09
 # max total images/rank                        1
 # max 3D layers                                1
 # MPI messages exchanged                    2208
 MPI messages size (bytes):
  total size                       111.148512E+06
  min size                          44.800000E+03
  max size                          65.504000E+03
  average size                      50.339000E+03
 MPI breakdown and total messages size (bytes):
             size <=      128                   0                        0
       128 < size <=     8192                   0                        0
      8192 < size <=    32768                   0                        0
     32768 < size <=   131072                2208                111148512
    131072 < size <=  4194304                   0                        0
   4194304 < size <= 16777216                   0                        0
  16777216 < size                               0                        0
 -------------------------------------------------------------------------------
 -                                                                             -
 -                      DBCSR MESSAGE PASSING PERFORMANCE                      -
 -                                                                             -
 -------------------------------------------------------------------------------
 ROUTINE             CALLS      AVE VOLUME [Bytes]
 MP_Bcast                9                     12.
 MP_Allreduce          150                     12.
 MP_Alltoall           656                  73504.
 MP_ISend              368                  19888.
 MP_IRecv              368                  17396.
 -------------------------------------------------------------------------------

 -------------------------------------------------------------------------------
 -                                                                             -
 -                                DBM STATISTICS                               -
 -                                                                             -
 -------------------------------------------------------------------------------
    M  x    N  x    K                                          COUNT     PERCENT
 -------------------------------------------------------------------------------

 -------------------------------------------------------------------------------
 -                                                                             -
 -                                GRID STATISTICS                              -
 -                                                                             -
 -------------------------------------------------------------------------------
 LP    KERNEL             BACKEND                              COUNT     PERCENT
 3     collocate general  CPU                                 324840      23.23%
 3     integrate general  CPU                                 311305      22.26%
 4     collocate general  CPU                                 253056      18.10%
 4     integrate general  CPU                                 242512      17.34%
 2     collocate general  CPU                                 135480       9.69%
 2     integrate general  CPU                                 129835       9.29%
 0     collocate general  CPU                                   1168       0.08%
 -------------------------------------------------------------------------------

 MEMORY| Estimated peak process memory [MiB]                                 643

 -------------------------------------------------------------------------------
 -                                                                             -
 -                         MESSAGE PASSING PERFORMANCE                         -
 -                                                                             -
 -------------------------------------------------------------------------------

 ROUTINE             CALLS      AVE VOLUME [Bytes]
 MP_Group                5
 MP_Bcast              163                4594801.
 MP_Allreduce          779                   1812.
 MP_Sync                27
 MP_Alltoall           478               18442225.
 MP_SendRecv          1080                 302640.
 MP_ISendRecv         1035                 302640.
 MP_Wait              1563
 MP_ISend              384                2629720.
 MP_IRecv              384                2630440.
 MP_Write_All            1                6371568.
 -------------------------------------------------------------------------------


 -------------------------------------------------------------------------------
 -                                                                             -
 -                           R E F E R E N C E S                               -
 -                                                                             -
 -------------------------------------------------------------------------------
 
 CP2K version 2025.2, the CP2K developers group (2025).
 CP2K is freely available from https://www.cp2k.org/ .
 
 T. D. Kuehne, M. Iannuzzi, M. Del Ben, V. V. Rybkin, P. Seewald, F. Stein, T. 
 Laino, R. Z. Khaliullin, O. Schuett, F. Schiffmann, D. Golze, J. Wilhelm, S. 
 Chulkov, M. H. Bani-Hashemian, V. Weber, U. Borstnik, M. Taillefumier, A. S. 
 Jakobovits, A. Lazzaro, H. Pabst, T. Mueller, R. Schade, M. Guidon, S. 
 Andermatt, N. Holmberg, G. K. Schenter, A. Hehn, A. Bussy, F. Belleflamme, G. 
 Tabacchi, A. Gloess, M. Lass, I. Bethune, C. J. Mundy, C. Plessl, M. Watkins, 
 J. VandeVondele, M. Krack, J. Hutter.
 J. Chem. Phys. 152, 194103 (2020).
 CP2K: An electronic structure and molecular dynamics software package - 
 Quickstep: Efficient and accurate electronic structure calculations.
 https://doi.org/10.1063/5.0007045

 L. Goerigk, A. Hansen, C. Bauer, S. Ehrlich, A. Najibi, S. Grimme.
 Phys. Chem. Chem. Phys. 19, 32184-32215 (2017).
 A look at the density functional theory zoo with the advanced GMTKN55 database 
 for general main group thermochemistry, kinetics and noncovalent interactions.
 https://doi.org/10.1039/C7CP04913G

 O. Schuett, P. Messmer, J. Hutter, J. VandeVondele.
 Electronic Structure Calculations on Graphics Processing Units, 173-190 (2016).
 GPU-Accelerated Sparse Matrix-Matrix Multiplication for Linear Scaling Density 
 Functional Theory.
 https://doi.org/10.1002/9781118670712.ch8

 A. Heinecke, G. Henry, M. Hutchinson, H. Pabst.
 Proceedings of Intl. Supercomputing Conference, 981-991 (2016).
 LIBXSMM: Accelerating Small Matrix Multiplications by Runtime Code Generation.
 https://doi.org/10.1109/SC.2016.83

 J. Hutter, M. Iannuzzi, F. Schiffmann, J. VandeVondele.
 WIREs Comput Mol Sci. 4, 15-25 (2014).
 CP2K: atomistic simulations of condensed matter systems.
 https://doi.org/10.1002/wcms.1159

 U. Borstnik, J. VandeVondele, V. Weber, J. Hutter.
 Parallel Comput. 40, 47-58 (2014).
 Sparse matrix multiplication: The distributed block-compressed sparse row 
 library.
 https://doi.org/10.1016/j.parco.2014.03.012

 A. Marek, V. Blum, R. Johanni, V. Havu, B. Lang, T. Auckenthaler, A. Heinecke, 
 H. Bungartz, H. Lederer.
 J. Phys. Condens. Matter 26, 213201 (2014).
 The ELPA library: scalable parallel eigenvalue solutions for electronic 
 structure theory and computational science.
 https://doi.org/10.1088/0953-8984/26/21/213201

 S. Grimme, S. Ehrlich, L. Goerigk.
 J. Comput. Chem. 32, 1456 (2011).
 Effect of the damping function in dispersion corrected density functional 
 theory.
 https://doi.org/10.1002/jcc.21759

 S. Grimme, J. Antony, S. Ehrlich, H. Krieg.
 J. Chem. Phys. 132, 154104 (2010).
 A consistent and accurate ab initio parametrization of density functional 
 dispersion correction (DFT-D) for the 94 elements H-Pu.
 https://doi.org/10.1063/1.3382344

 J. VandeVondele, J. Hutter.
 J. Chem. Phys. 127, 114105 (2007).
 Gaussian basis sets for accurate calculations on molecular systems in gas and 
 condensed phases.
 https://doi.org/10.1063/1.2770708

 J. VandeVondele, M. Krack, F. Mohamed, M. Parrinello, T. Chassaing, J. Hutter.
 Comput. Phys. Commun. 167, 103-128 (2005).
 QUICKSTEP: Fast and accurate density functional calculations using a mixed 
 Gaussian and plane waves approach.
 https://doi.org/10.1016/j.cpc.2004.12.014

 M. Krack.
 Theor. Chem. Acc. 114, 145-152 (2005).
 Pseudopotentials for H to Kr optimized for gradient-corrected 
 exchange-correlation functionals.
 https://doi.org/10.1007/s00214-005-0655-y

 M. Frigo, S. G. Johnson.
 Proc. IEEE 93, 216-231 (2005).
 The design and implementation of FFTW3.
 https://doi.org/10.1109/JPROC.2004.840301

 G. J. Martyna, M. E. Tuckerman.
 J. Chem. Phys. 110, 2810-2821 (1999).
 A reciprocal space based method for treating long range interactions in ab 
 initio and force-field-based calculations in clusters.
 https://doi.org/10.1063/1.477923

 C. Hartwigsen, S. Goedecker, J. Hutter.
 Phys. Rev. B 58, 3641-3662 (1998).
 Relativistic separable dual-space Gaussian pseudopotentials from H to Rn.
 https://doi.org/10.1103/PhysRevB.58.3641

 G. Lippert, J. Hutter, M. Parrinello.
 Mol. Phys. 92, 477-487 (1997).
 A hybrid Gaussian and plane wave density functional scheme.
 https://doi.org/10.1080/002689797170220

 S. Goedecker, M. Teter, J. Hutter.
 Phys. Rev. B 54, 1703-1710 (1996).
 Separable dual-space Gaussian pseudopotentials.
 https://doi.org/10.1103/PhysRevB.54.1703

 J. P. Perdew, K. Burke, M. Ernzerhof.
 Phys. Rev. Lett. 77, 3865-3868 (1996).
 Generalized gradient approximation made simple.
 https://doi.org/10.1103/PhysRevLett.77.3865


 -------------------------------------------------------------------------------
 -                                                                             -
 -                                T I M I N G                                  -
 -                                                                             -
 -------------------------------------------------------------------------------
 SUBROUTINE                       CALLS  ASD         SELF TIME        TOTAL TIME
                                MAXIMUM       AVERAGE  MAXIMUM  AVERAGE  MAXIMUM
 CP2K                                 1  1.0    0.014    0.017   35.636   35.638
 qs_energies                          1  2.0    0.000    0.000   35.205   35.206
 scf_env_do_scf                       1  3.0    0.000    0.000   33.544   33.553
 scf_env_do_scf_inner_loop           23  4.0    0.000    0.001   33.544   33.553
 qs_ks_update_qs_env                 23  5.0    0.000    0.000   21.390   21.403
 rebuild_ks_matrix                   23  6.0    0.000    0.000   21.386   21.400
 qs_ks_build_kohn_sham_matrix        23  7.0    0.002    0.002   21.386   21.400
 fft_wrap_pw1pw2                    419 10.0    0.004    0.007   16.143   16.927
 fft_wrap_pw1pw2_180                278 11.3    0.842    0.947   15.692   16.324
 fft3d_ps                           419 12.0    6.903    7.219   11.574   12.696
 qs_vxc_create                       23  8.0    0.000    0.001   12.551   12.676
 xc_vxc_pw_create                    23  9.0    0.111    0.154   12.551   12.675
 xc_pw_derive                       138 11.0    0.001    0.002    9.354    9.801
 qs_rho_update_rho_low               24  5.0    0.000    0.000    6.529    6.529
 calculate_rho_elec                  24  6.0    0.018    0.021    6.529    6.529
 xc_pw_divergence                    23 10.0    0.000    0.001    6.201    6.496
 xc_rho_set_and_dset_create          23 10.0    0.175    0.210    6.079    6.348
 sum_up_and_integrate                23  8.0    0.000    0.000    5.821    5.835
 integrate_v_rspace                  23  9.0    0.001    0.001    5.739    5.762
 gspace_mixing                       22  5.0    0.017    0.019    5.355    5.356
 density_rs2pw                       24  7.0    0.001    0.001    4.571    4.768
 mp_alltoall_z22v                   419 14.0    2.741    4.492    2.741    4.492
 broyden_mixing                      22  6.0    3.807    4.157    4.090    4.215
 potential_pw2rs                     23 10.0    0.002    0.003    3.331    3.340
 x_to_yz                            230 13.2    1.224    1.575    2.676    3.209
 yz_to_x                            189 12.8    0.698    0.775    1.987    3.040
 grid_collocate_task_list            24  7.0    1.867    2.386    1.867    2.386
 grid_integrate_task_list            23 10.0    1.737    2.283    1.737    2.283
 pw_derive                          207 11.3    1.724    2.141    1.724    2.141
 pw_scatter_p                       230 12.2    1.545    1.712    1.545    1.712
 transfer_pw2rs                      92 11.0    0.001    0.001    1.706    1.708
 transfer_rs2pw                      97  8.0    0.001    0.001    1.450    1.694
 pw_gather_p                        189 11.8    1.203    1.590    1.203    1.590
 pw_poisson_solve                    23  8.0    0.000    0.000    1.473    1.585
 mp_waitany                         384 11.4    1.067    1.403    1.067    1.403
 pw_copy                            345 10.5    1.265    1.389    1.265    1.389
 transfer_pw2rs_180                  23 12.0    0.661    0.745    1.282    1.350
 transfer_rs2pw_180                  25  8.9    0.307    0.401    1.076    1.324
 xc_functional_eval                  23 11.0    0.000    0.000    0.922    1.232
 pbe_lda_eval                        23 12.0    0.922    1.232    0.922    1.232
 scf_post_calculation_gpw             1  3.0    0.000    0.000    1.193    1.194
 write_available_results              1  4.0    0.000    0.000    1.193    1.194
 write_mo_free_results                1  5.0    0.374    0.517    1.193    1.194
 pw_to_cube                           1  6.0    0.333    0.601    0.819    1.082
 pw_poisson_set                      24  8.9    0.000    0.001    0.959    1.071
 mp_alltoall_d11v                   329  9.2    0.686    0.866    0.686    0.866
 rs_gather_matrices                  23 10.0    0.001    0.002    0.671    0.852
 pw_axpy                            234  9.3    0.669    0.748    0.669    0.748
 -------------------------------------------------------------------------------

 The number of warnings for this run is : 23
 
 -------------------------------------------------------------------------------
  **** **** ******  **  PROGRAM ENDED AT                 2026-06-04 19:48:00.688
 ***** ** ***  *** **   PROGRAM RAN ON                                  simnode3
 **    ****   ******    PROGRAM RAN BY                                   liuming
 ***** **    ** ** **   PROGRAM PROCESS ID                                252296
  **** **  *******  **  PROGRAM STOPPED IN /mnt/ssd/home/liuming/cp2k/HBAB-TAPA-
                                           COF/HBAB-TAPA-COF-Cs/2_energy/HBAB-TA
                                           PA-COF
