 DBCSR| CPU Multiplication driver                                           XSMM (U)
 DBCSR| Multrec recursion limit                                              512 (U)
 DBCSR| Multiplication stack size                                           1000 (D)
 DBCSR| Maximum elements for images                                    UNLIMITED (U)
 DBCSR| Multiplicative factor virtual images                                   1 (U)
 DBCSR| Use multiplication densification                                       T (D)
 DBCSR| Multiplication size stacks                                             3 (U)
 DBCSR| Use memory pool for CPU allocation                                     F (U)
 DBCSR| OMP: Current number of threads                                        12
 DBCSR| OMP: Max number of threads                                            12
 DBCSR| Split modifier for TAS multiplication algorithm                  1.0E+00 (U)


  **** **** ******  **  PROGRAM STARTED AT               2026-10-06 16:32:55.908
 ***** ** ***  *** **   PROGRAM STARTED ON                              simnode7
 **    ****   ******    PROGRAM STARTED BY                               liuming
 ***** **    ** ** **   PROGRAM PROCESS ID                                189225
  **** **  *******  **  PROGRAM STARTED IN /mnt/ssd/home/liuming/PSSNa_add_EDD/C
                                           OF-opt/EDD/Cl/3-Cl

 CP2K| version string:                                       CP2K version 2026.2
 CP2K| source code revision number:                                   67b5da876d
 CP2K| cp2kflags: omp libint fftw3 libxc libxs libxsmm spglib libdftd4 dftd4_v4_
 CP2K|            2 s_dftd3 mctc-lib tblite libvori libbqb libfci
 CP2K| is freely available from                            https://www.cp2k.org/
 CP2K| Program compiled at                                   2026-07-31 15:02:25
 CP2K| Program compiled on                                                PC9404
 CP2K| Program compiled for                                               x86_64
 CP2K| Data directory path             /mnt/ssd/home/xzhaoq/opt/cp2k-csnode/data
 CP2K| Input file name                                                    Cl.inp

 GLOBAL| Force Environment number                                              1
 GLOBAL| Basis set file name                                        BASIS_MOLOPT
 GLOBAL| Potential file name                                           POTENTIAL
 GLOBAL| MM Potential file name                                     MM_POTENTIAL
 GLOBAL| Coordinate file name                                      __STD_INPUT__
 GLOBAL| Method name                                                        CP2K
 GLOBAL| Project name                                    HBAB-TAPA-COF-2layer-Cl
 GLOBAL| Run type                                                         ENERGY
 GLOBAL| FFT library                                                       FFTW3
 GLOBAL| Diagonalization library                                       ScaLAPACK
 GLOBAL| Cholesky decomposition library                                ScaLAPACK
 GLOBAL| DGEMM library                                                      BLAS
 GLOBAL| Direct generalized diagonalization requested                          F
 GLOBAL| Orthonormality check for eigenvectors                          DISABLED
 GLOBAL| Matrix multiplication library                                 ScaLAPACK
 GLOBAL| All-to-all communication in single precision                          F
 GLOBAL| FFTs using library dependent lengths                                  F
 GLOBAL| Grid backend                                                       AUTO
 GLOBAL| Global print level                                                  LOW
 GLOBAL| MPI I/O enabled                                                       T
 GLOBAL| Total number of message passing processes                             1
 GLOBAL| Number of distributed systems (nodes)                                 1
 GLOBAL| Number of threads for this process                                   12
 GLOBAL| This output is from process                                           0
 GLOBAL| OpenMP stack size per thread (OMP_STACKSIZE)                        64M
 GLOBAL| CPU model name                     13th Gen Intel(R) Core(TM) i9-13900K
 GLOBAL| CPUID                                                              1002
 GLOBAL| Compiled for CPUID                                                 1001

 MEMORY| system memory details [Kb]
 MEMORY|                        rank 0           min           max       average
 MEMORY| MemTotal             65601780      65601780      65601780      65601780
 MEMORY| MemFree               3574344       3574344       3574344       3574344
 MEMORY| Buffers                195872        195872        195872        195872
 MEMORY| Cached               43388644      43388644      43388644      43388644
 MEMORY| Slab                   733780        733780        733780        733780
 MEMORY| SReclaimable           407748        407748        407748        407748
 MEMORY| MemLikelyFree        47566608      47566608      47566608      47566608


 GENERATE|  Preliminary Number of Bonds generated:                             0
 GENERATE|  Achieved consistency in connectivity generation.

 *******************************************************************************
 *******************************************************************************
 **                                                                           **
 **     #####                         ##              ##                      **
 **    ##   ##            ##          ##              ##                      **
 **   ##     ##                       ##            ######                    **
 **   ##     ##  ##   ##  ##   #####  ##  ##   ####   ##    #####    #####    **
 **   ##     ##  ##   ##  ##  ##      ## ##   ##      ##   ##   ##  ##   ##   **
 **   ##  ## ##  ##   ##  ##  ##      ####     ###    ##   ######   ######    **
 **    ##  ###   ##   ##  ##  ##      ## ##      ##   ##   ##       ##        **
 **     #######   #####   ##   #####  ##  ##  ####    ##    #####   ##        **
 **           ##                                                    ##        **
 **                                                                           **
 **                                                ... make the atoms dance   **
 **                                                                           **
 **            Copyright (C) by CP2K developers group (2000-2026)             **
 **                      J. Chem. Phys. 152, 194103 (2020)                    **
 **                                                                           **
 *******************************************************************************


 TOTAL NUMBERS AND MAXIMUM NUMBERS

  Total number of            - Atomic kinds:                                   1
                             - Atoms:                                          1
                             - Shell sets:                                     1
                             - Shells:                                         5
                             - Primitive Cartesian functions:                  4
                             - Cartesian basis functions:                     14
                             - Spherical basis functions:                     13

  Maximum angular momentum of- Orbital basis functions:                        2
                             - Local part of the GTH pseudopotential:          0
                             - Non-local part of the GTH pseudopotential:      2


 SCF PARAMETERS         Density guess:                                    ATOMIC
                        --------------------------------------------------------
                        max_scf:                                             128
                        max_scf_history:                                       0
                        max_diis:                                              4
                        --------------------------------------------------------
                        eps_scf:                                        5.00E-06
                        eps_scf_history:                                0.00E+00
                        eps_diis:                                       1.00E-01
                        eps_eigval:                                     1.00E-05
                        --------------------------------------------------------
                        level_shift [a.u.]:                             0.000000
                        --------------------------------------------------------
                        Mixing method:                            BROYDEN_MIXING
                                                charge density mixing in g-space
                        --------------------------------------------------------
                        No outer SCF

 Extrapolation method: initial_guess

 Spin 1

 Number of electrons:                                                          4
 Number of occupied orbitals:                                                  4
 Number of molecular orbitals:                                                 4

 Spin 2

 Number of electrons:                                                          4
 Number of occupied orbitals:                                                  4
 Number of molecular orbitals:                                                 4

 Number of orbital functions:                                                 13
 Number of independent orbital functions:                                     13


 SCF WAVEFUNCTION OPTIMIZATION

  Step     Update method      Time    Convergence         Total energy    Change
  ------------------------------------------------------------------------------
     1 NoMix/Diag. 0.40E+00    4.5     0.16560525       -15.0921758414 -1.51E+01
     2 Broy./Diag. 0.40E+00    5.8     0.05881079       -16.1029291361 -1.01E+00
     3 Broy./Diag. 0.40E+00    6.1     0.03215695       -15.3187971798  7.84E-01
     4 Broy./Diag. 0.40E+00    6.2     0.00120385       -15.0412739673  2.78E-01
     5 Broy./Diag. 0.40E+00    6.1     0.00130109       -15.0296399568  1.16E-02
     6 Broy./Diag. 0.40E+00    7.0     0.00005384       -15.0217463921  7.89E-03
     7 Broy./Diag. 0.40E+00    6.2     0.00018089       -15.0231625668 -1.42E-03
     8 Broy./Diag. 0.40E+00    6.6     0.00003238       -15.0211945027  1.97E-03
     9 Broy./Diag. 0.40E+00    6.9     0.00000559       -15.0210084056  1.86E-04
    10 Broy./Diag. 0.40E+00    6.9     0.00000250       -15.0215999432 -5.92E-04

  *** SCF run converged in    10 steps ***


  Electronic density on regular grids:         -8.0000000000        0.0000000000
  Core density on regular grids:                6.9999999999       -0.0000000001
  Total charge density on r-space grids:       -1.0000000001
  Total charge density g-space grids:          -1.0000000001

  Overlap energy of the core charge distribution:               0.00000000000000
  Self energy of the core charge distribution:                -33.71376779736593
  Core Hamiltonian energy:                                      7.93891272886395
  Hartree energy:                                              13.91210678553441
  Exchange-correlation energy:                                 -3.15885151299091
  Dispersion energy:                                           -0.00000014719897

  Total energy:                                               -15.02159994315746

  Integrated spin density:                                         -0.0000000000
  Integrated absolute spin density:                                 0.0000000000
  Ideal and single determinant S**2 :                    0.000000       0.000000

 The sum of alpha and beta density is written in Cube    file format to the file:

 HBAB-TAPA-COF-2layer-Cl-ELECTRON_DENSITY-1_0.cube

 The spin density is written in Cube    file format to the file:

 HBAB-TAPA-COF-2layer-Cl-SPIN_DENSITY-1_0.cube

 ENERGY| Total FORCE_EVAL ( QS ) energy [hartree]            -15.021599943157460

 -------------------------------------------------------------------------------
 -                                                                             -
 -                                DBCSR STATISTICS                             -
 -                                                                             -
 -------------------------------------------------------------------------------
 COUNTER                                    TOTAL       BLAS       SMM       ACC
 flops    13 x     4 x    13                 1352       0.0%    100.0%      0.0%     
 flops    13 x    13 x     4                27040       0.0%    100.0%      0.0%     
 flops inhomo. stacks                           0       0.0%      0.0%      0.0%
 flops total                        28.392000E+03       0.0%    100.0%      0.0%
 flops max/rank                     28.392000E+03       0.0%    100.0%      0.0%
 matmuls inhomo. stacks                         0       0.0%      0.0%      0.0%
 matmuls total                                 21       0.0%    100.0%      0.0%
 number of processed stacks                    21       0.0%    100.0%      0.0%
 average stack size                                     0.0       1.0       0.0
 marketing flops                    28.392000E+03
 -------------------------------------------------------------------------------
 # multiplications                             21
 max memory usage/rank              18.975068E+09
 # max total images/rank                        1
 # max 3D layers                                1
 # MPI messages exchanged                       0
 -------------------------------------------------------------------------------

 -------------------------------------------------------------------------------
 -                                                                             -
 -                                GRID STATISTICS                              -
 -                                                                             -
 -------------------------------------------------------------------------------
 LP    KERNEL             BACKEND                              COUNT     PERCENT
 4     collocate general  CPU                                    352      52.30%
 4     integrate general  CPU                                    320      47.55%
 0     collocate general  CPU                                      1       0.15%
 -------------------------------------------------------------------------------

 -------------------------------------------------------------------------------
 -                                                                             -
 -                          OFFLOAD MEMPOOL STATISTICS                         -
 -                                                                             -
 -------------------------------------------------------------------------------
 Memory consumption                Number of allocations  Used [MiB]  Size [MiB]
 Host                                                  6         113         204
 -------------------------------------------------------------------------------

 MEMORY| Estimated peak process memory [MiB]                               14782

 -------------------------------------------------------------------------------
 -                                                                             -
 -                           R E F E R E N C E S                               -
 -                                                                             -
 -------------------------------------------------------------------------------
 
 CP2K version 2026.2, the CP2K developers group (2026).
 CP2K is freely available from https://www.cp2k.org/ .
 
 M. Iannuzzi, J. Wilhelm, F. Stein, A. Bussy, H. Elgabarty, D. Golze, A. Hehn, 
 M. Graml, S. Marek, B. Sertcan Gökmen, C. Schran, H. Forbert, R. Z. 
 Khaliullin, A. Kozhevnikov, M. Taillefumier, R. Meli, V. V. Rybkin, M. Brehm, 
 R. Schade, O. Schütt, J. V. Pototschnig, H. Mirhosseini, A. Knüpfer, D. Marx, 
 M. Krack, J. Hutter, T. D. Kühne.
 J. Phys. Chem. B 130, 1237-1310 (2026).
 The CP2K Program Package Made Simple.
 https://doi.org/10.1021/acs.jpcb.5c05851

 L. Wittmann, I. Gordiy, M. Friede, B. Helmich-Paris, S. Grimme, A. Hansen, M. 
 Bursch.
 Phys. Chem. Chem. Phys. 26, 21379-21394 (2024).
 Extension of the D3 and D4 London dispersion corrections to the full actinides 
 series.
 https://doi.org/10.1039/d4cp01514b

 T. D. Kühne, M. Iannuzzi, M. Del Ben, V. V. Rybkin, P. Seewald, F. Stein, T. 
 Laino, R. Z. Khaliullin, O. Schütt, F. Schiffmann, D. Golze, J. Wilhelm, S. 
 Chulkov, M. H. Bani-Hashemian, V. Weber, U. Borstnik, M. Taillefumier, A. S. 
 Jakobovits, A. Lazzaro, H. Pabst, T. Müller, R. Schade, M. Guidon, S. 
 Andermatt, N. Holmberg, G. K. Schenter, A. Hehn, A. Bussy, F. Belleflamme, G. 
 Tabacchi, A. Glöß, M. Lass, I. Bethune, C. J. Mundy, C. Plessl, M. Watkins, 
 J. VandeVondele, M. Krack, J. Hutter.
 J. Chem. Phys. 152, 194103 (2020).
 CP2K: An electronic structure and molecular dynamics software package - 
 Quickstep: Efficient and accurate electronic structure calculations.
 https://doi.org/10.1063/5.0007045

 L. Goerigk, A. Hansen, C. Bauer, S. Ehrlich, A. Najibi, S. Grimme.
 Phys. Chem. Chem. Phys. 19, 32184-32215 (2017).
 A look at the density functional theory zoo with the advanced GMTKN55 database 
 for general main group thermochemistry, kinetics and noncovalent interactions.
 https://doi.org/10.1039/C7CP04913G

 O. Schuett, P. Messmer, J. Hutter, J. VandeVondele.
 Electronic Structure Calculations on Graphics Processing Units, 173-190 (2016).
 GPU-Accelerated Sparse Matrix-Matrix Multiplication for Linear Scaling Density 
 Functional Theory.
 https://doi.org/10.1002/9781118670712.ch8

 A. Heinecke, G. Henry, M. Hutchinson, H. Pabst.
 Proceedings of Intl. Supercomputing Conference, 981-991 (2016).
 LIBXSMM: Accelerating Small Matrix Multiplications by Runtime Code Generation.
 https://doi.org/10.1109/SC.2016.83

 U. Borstnik, J. VandeVondele, V. Weber, J. Hutter.
 Parallel Comput. 40, 47-58 (2014).
 Sparse matrix multiplication: The distributed block-compressed sparse row 
 library.
 https://doi.org/10.1016/j.parco.2014.03.012

 S. Grimme, S. Ehrlich, L. Goerigk.
 J. Comput. Chem. 32, 1456 (2011).
 Effect of the damping function in dispersion corrected density functional 
 theory.
 https://doi.org/10.1002/jcc.21759

 S. Grimme, J. Antony, S. Ehrlich, H. Krieg.
 J. Chem. Phys. 132, 154104 (2010).
 A consistent and accurate ab initio parametrization of density functional 
 dispersion correction (DFT-D) for the 94 elements H-Pu.
 https://doi.org/10.1063/1.3382344

 J. VandeVondele, J. Hutter.
 J. Chem. Phys. 127, 114105 (2007).
 Gaussian basis sets for accurate calculations on molecular systems in gas and 
 condensed phases.
 https://doi.org/10.1063/1.2770708

 J. VandeVondele, M. Krack, F. Mohamed, M. Parrinello, T. Chassaing, J. Hutter.
 Comput. Phys. Commun. 167, 103-128 (2005).
 QUICKSTEP: Fast and accurate density functional calculations using a mixed 
 Gaussian and plane waves approach.
 https://doi.org/10.1016/j.cpc.2004.12.014

 M. Krack.
 Theor. Chem. Acc. 114, 145-152 (2005).
 Pseudopotentials for H to Kr optimized for gradient-corrected 
 exchange-correlation functionals.
 https://doi.org/10.1007/s00214-005-0655-y

 M. Frigo, S. G. Johnson.
 Proc. IEEE 93, 216-231 (2005).
 The design and implementation of FFTW3.
 https://doi.org/10.1109/JPROC.2004.840301

 G. J. Martyna, M. E. Tuckerman.
 J. Chem. Phys. 110, 2810-2821 (1999).
 A reciprocal space based method for treating long range interactions in ab 
 initio and force-field-based calculations in clusters.
 https://doi.org/10.1063/1.477923

 C. Hartwigsen, S. Goedecker, J. Hutter.
 Phys. Rev. B 58, 3641-3662 (1998).
 Relativistic separable dual-space Gaussian pseudopotentials from H to Rn.
 https://doi.org/10.1103/PhysRevB.58.3641

 G. Lippert, J. Hutter, M. Parrinello.
 Mol. Phys. 92, 477-487 (1997).
 A hybrid Gaussian and plane wave density functional scheme.
 https://doi.org/10.1080/002689797170220

 S. Goedecker, M. Teter, J. Hutter.
 Phys. Rev. B 54, 1703-1710 (1996).
 Separable dual-space Gaussian pseudopotentials.
 https://doi.org/10.1103/PhysRevB.54.1703

 J. P. Perdew, K. Burke, M. Ernzerhof.
 Phys. Rev. Lett. 77, 3865-3868 (1996).
 Generalized gradient approximation made simple.
 https://doi.org/10.1103/PhysRevLett.77.3865

 C. G. Broyden.
 Math. Comput. 19, 577-593 (1965).
 A class of methods for solving nonlinear simultaneous equations.
 https://doi.org/10.1090/S0025-5718-1965-0198670-6


 -------------------------------------------------------------------------------
 -                                                                             -
 -                                T I M I N G                                  -
 -                                                                             -
 -------------------------------------------------------------------------------
 SUBROUTINE                       CALLS  ASD         SELF TIME        TOTAL TIME
                                MAXIMUM       AVERAGE  MAXIMUM  AVERAGE  MAXIMUM
 CP2K                                 1  1.0    0.197    0.197   79.195   79.195
 qs_energies                          1  2.0    0.000    0.000   72.998   72.998
 scf_env_do_scf                       1  3.0    0.000    0.000   63.905   63.905
 scf_env_do_scf_inner_loop           10  4.0    0.000    0.000   63.905   63.905
 qs_ks_update_qs_env                 10  5.0    0.000    0.000   41.978   41.978
 rebuild_ks_matrix                   10  6.0    0.000    0.000   41.978   41.978
 qs_ks_build_kohn_sham_matrix        10  7.0    0.001    0.001   41.978   41.978
 fft_wrap_pw1pw2                    359 10.1    0.005    0.005   41.553   41.553
 fft_wrap_pw1pw2_180                233 11.4    6.453    6.453   40.228   40.228
 qs_vxc_create                       10  8.0    0.000    0.000   33.448   33.448
 xc_vxc_pw_create                    10  9.0    0.975    0.975   33.448   33.448
 xc_pw_derive                       120 11.0    0.001    0.001   23.699   23.699
 fft3d_s                            360 12.0   20.756   20.756   20.761   20.761
 xc_pw_divergence                    20 10.0    0.001    0.001   16.807   16.807
 xc_rho_set_and_dset_create          10 10.0    2.224    2.224   15.009   15.009
 qs_rho_update_rho_low               11  5.0    0.000    0.000   12.114   12.114
 calculate_rho_elec                  22  6.0    0.409    0.409   12.114   12.114
 gspace_mixing                        9  5.0    0.320    0.320   10.992   10.992
 density_rs2pw                       22  7.0    0.001    0.001    9.392    9.392
 pw_scatter_s                       190 12.3    8.831    8.831    8.831    8.831
 broyden_mixing                       9  6.0    7.097    7.097    7.097    7.097
 scf_post_calculation_gpw             1  3.0    0.000    0.000    6.044    6.044
 write_available_results              1  4.0    0.000    0.000    6.044    6.044
 write_mo_free_results                1  5.0    1.273    1.273    5.958    5.958
 qs_init_subsys                       1  2.0    0.000    0.000    5.728    5.728
 qs_env_setup                         1  3.0    0.000    0.000    5.706    5.706
 qs_env_rebuild_pw_env                2  3.5    0.000    0.000    5.706    5.706
 pw_env_rebuild                       1  5.0    0.000    0.000    5.706    5.706
 pw_grid_setup                        5  6.0    0.000    0.000    5.706    5.706
 pw_grid_setup_internal               5  7.0    0.096    0.096    5.706    5.706
 pw_grid_sort                         5  8.0    3.572    3.572    5.011    5.011
 sum_up_and_integrate                10  8.0    0.000    0.000    4.776    4.776
 pw_to_cube                           2  6.0    4.651    4.651    4.657    4.657
 integrate_v_rspace                  20  9.0    0.001    0.001    4.599    4.599
 potential_pw2rs                     20 10.0    0.025    0.025    4.561    4.561
 pw_gather_s                        169 11.8    3.577    3.577    3.577    3.577
 pw_derive                          150 11.6    3.004    3.004    3.004    3.004
 init_scf_run                         1  3.0    0.000    0.000    2.830    2.830
 scf_env_initial_rho_setup            1  4.0    0.000    0.000    2.829    2.829
 grid_collocate_task_list            22  7.0    2.313    2.313    2.313    2.313
 pw_axpy                            307  9.0    2.265    2.265    2.265    2.265
 pw_poisson_solve                    10  8.0    0.000    0.000    1.807    1.807
 -------------------------------------------------------------------------------

 The number of warnings for this run is : 0
 
 -------------------------------------------------------------------------------
  **** **** ******  **  PROGRAM ENDED AT                 2026-10-06 16:34:15.186
 ***** ** ***  *** **   PROGRAM RAN ON                                  simnode7
 **    ****   ******    PROGRAM RAN BY                                   liuming
 ***** **    ** ** **   PROGRAM PROCESS ID                                189225
  **** **  *******  **  PROGRAM STOPPED IN /mnt/ssd/home/liuming/PSSNa_add_EDD/C
                                           OF-opt/EDD/Cl/3-Cl
